Cr4 F16                                 
   1.00000000000000     
     8.0719458954776329   -0.0000510800887463   -0.0001332764581623
    -0.0000512338629613    8.0702324265468199   -0.0000544009093086
    -0.0000394497353347   -0.0000169904093390    3.7772625612337318
   Cr   F 
     4    16
Direct
  0.3638727509306277  0.6360806008122770  0.5000016038966486
  0.6361316753197400  0.3639177148682355  0.5000000995580781
  0.1361230702600572  0.1360622115632604 -0.0000001127307277
  0.8638715365974939  0.8639247849408391 -0.0000000269393872
  0.6013600194824797  0.6014279558355482  0.5000215697445332
  0.3986165353723843  0.3985962896967048  0.4999846502671448
  0.8986224708523137  0.1013977380487131  0.9999945936910197
  0.1013545769647733  0.8985798391509516  0.0000139874605787
  0.8731323319836523  0.8731162455084394  0.4999961470238283
  0.1268714476614462  0.1268705166199701  0.5000061428409694
  0.6268652290828438  0.3731368594504155  0.0000016107415092
  0.3731328048040252  0.6268822772998519  0.9999968962313336
  0.1542588649452739  0.6104680205276909  0.4999629441636981
  0.8457640587336316  0.3895624106505994  0.5000243024896865
  0.3457797033089661  0.1104410228174939  0.0000260876510055
  0.6542202930593854  0.8895284578880386  0.9999728866585043
  0.6105448598414409  0.1542269692232330  0.4999857977761366
  0.3894675841905910  0.8457928629130433  0.5000126712179706
  0.1105436917648939  0.3457907821593312  0.0000048661603307
  0.8894664948439799  0.6541964400253558  0.9999932820971461
 
  0.00000000E+00  0.00000000E+00  0.00000000E+00
  0.00000000E+00  0.00000000E+00  0.00000000E+00
  0.00000000E+00  0.00000000E+00  0.00000000E+00
  0.00000000E+00  0.00000000E+00  0.00000000E+00
  0.00000000E+00  0.00000000E+00  0.00000000E+00
  0.00000000E+00  0.00000000E+00  0.00000000E+00
  0.00000000E+00  0.00000000E+00  0.00000000E+00
  0.00000000E+00  0.00000000E+00  0.00000000E+00
  0.00000000E+00  0.00000000E+00  0.00000000E+00
  0.00000000E+00  0.00000000E+00  0.00000000E+00
  0.00000000E+00  0.00000000E+00  0.00000000E+00
  0.00000000E+00  0.00000000E+00  0.00000000E+00
  0.00000000E+00  0.00000000E+00  0.00000000E+00
  0.00000000E+00  0.00000000E+00  0.00000000E+00
  0.00000000E+00  0.00000000E+00  0.00000000E+00
  0.00000000E+00  0.00000000E+00  0.00000000E+00
  0.00000000E+00  0.00000000E+00  0.00000000E+00
  0.00000000E+00  0.00000000E+00  0.00000000E+00
  0.00000000E+00  0.00000000E+00  0.00000000E+00
  0.00000000E+00  0.00000000E+00  0.00000000E+00
