Cr2 F6                                  
   1.00000000000000     
     4.3923982822457743   -0.0099504906223153    2.8776149941428391
     1.5499392415870725    4.1098551753302148    2.8776125988673140
    -0.0144180220417252   -0.0099529870847565    5.2510713785652019
   Cr   F 
     2     6
Direct
  0.5000011964901077  0.4999981534226280  0.5000010166493245
 -0.0000018006886380  0.0000009248054393  0.0000010309876334
  0.6303504268896362  0.2500100392420165  0.8696612816377877
  0.2499888846283821  0.8696511156985466  0.6303371832235524
  0.8696449091739517  0.6303532604238040  0.2500004877425978
  0.3696522317325081  0.7499880437588635  0.1303375466874756
  0.7500081579038371  0.1303526189037446  0.3696629041878826
  0.1303559938702150  0.3696458437449573  0.7499985488837461
 
  0.00000000E+00  0.00000000E+00  0.00000000E+00
  0.00000000E+00  0.00000000E+00  0.00000000E+00
  0.00000000E+00  0.00000000E+00  0.00000000E+00
  0.00000000E+00  0.00000000E+00  0.00000000E+00
  0.00000000E+00  0.00000000E+00  0.00000000E+00
  0.00000000E+00  0.00000000E+00  0.00000000E+00
  0.00000000E+00  0.00000000E+00  0.00000000E+00
  0.00000000E+00  0.00000000E+00  0.00000000E+00
