Cr2 F4                                  
   1.00000000000000     
     4.6758156554432304    0.0000001032461954   -0.4967534571778913
     0.0000001170493702    4.6898662411818970    0.0000000616789308
     0.0274670848595096    0.0000000578111806    3.5172866578816526
   Cr   F 
     2     4
Direct
  0.5000598931166569  0.5000911028294800  0.4999461759233195
  0.0000600802023201 -0.0000912146360589 -0.0000538142589198
  0.1986727049845827  0.8010814680282624  0.4590597163650875
  0.6986725967211572  0.6989185864744336  0.9590597332784478
  0.8012674083213298  0.1989259416032038  0.5409941735352024
  0.3012673166539533  0.3010741157006791  0.0409940151568626
 
  0.00000000E+00  0.00000000E+00  0.00000000E+00
  0.00000000E+00  0.00000000E+00  0.00000000E+00
  0.00000000E+00  0.00000000E+00  0.00000000E+00
  0.00000000E+00  0.00000000E+00  0.00000000E+00
  0.00000000E+00  0.00000000E+00  0.00000000E+00
  0.00000000E+00  0.00000000E+00  0.00000000E+00
