Cr4 F16                                 
   1.00000000000000     
     8.1172794247496416   -0.0001265189416336   -0.0000005370075460
    -0.0001265569606367    8.1126054013902582   -0.0000010772378448
    -0.0000002594923910   -0.0000004810303194    3.7974460637558671
   Cr   F 
     4    16
Direct
  0.3641243750088996  0.6358008951217577  0.4999999283555578
  0.6358484806309828  0.3642214278218507  0.4999998459134402
  0.1358668081969714  0.1358463429876333  0.0000001212915994
  0.8641320498562782  0.8641553943372715  0.9999998694778121
  0.6010336942101342  0.6011485175041110  0.5000000658616101
  0.3989602511339357  0.3988555841056626  0.5000000949617149
  0.8989675809506624  0.1011432254212474 -0.0000000026344257
  0.1010387422406373  0.8988642515710087  0.0000000044076959
  0.8737468089404212  0.8737799749799329  0.5000000335178822
  0.1262528382744433  0.1262133659592421  0.4999999623426393
  0.6262565409713943  0.3737906807422748  0.0000001092201030
  0.3737423552310503  0.6262091927122168 -0.0000000002566456
  0.1547221534196979  0.6105505677054377  0.4999999549309376
  0.8452853521776936  0.3894573822722223  0.5000003653725494
  0.3452342718984014  0.1105545268728069  0.9999997191588694
  0.6547515731909589  0.8894244076264833  0.9999999182600753
  0.6106888487647151  0.1545658883025468  0.4999996673226851
  0.3893190247805679  0.8454328942768714  0.4999999692676856
  0.1107202180650239  0.3453833591811344  0.0000003400322338
  0.8893080320571238  0.6546021204982805  0.0000000331959799
 
  0.00000000E+00  0.00000000E+00  0.00000000E+00
  0.00000000E+00  0.00000000E+00  0.00000000E+00
  0.00000000E+00  0.00000000E+00  0.00000000E+00
  0.00000000E+00  0.00000000E+00  0.00000000E+00
  0.00000000E+00  0.00000000E+00  0.00000000E+00
  0.00000000E+00  0.00000000E+00  0.00000000E+00
  0.00000000E+00  0.00000000E+00  0.00000000E+00
  0.00000000E+00  0.00000000E+00  0.00000000E+00
  0.00000000E+00  0.00000000E+00  0.00000000E+00
  0.00000000E+00  0.00000000E+00  0.00000000E+00
  0.00000000E+00  0.00000000E+00  0.00000000E+00
  0.00000000E+00  0.00000000E+00  0.00000000E+00
  0.00000000E+00  0.00000000E+00  0.00000000E+00
  0.00000000E+00  0.00000000E+00  0.00000000E+00
  0.00000000E+00  0.00000000E+00  0.00000000E+00
  0.00000000E+00  0.00000000E+00  0.00000000E+00
  0.00000000E+00  0.00000000E+00  0.00000000E+00
  0.00000000E+00  0.00000000E+00  0.00000000E+00
  0.00000000E+00  0.00000000E+00  0.00000000E+00
  0.00000000E+00  0.00000000E+00  0.00000000E+00
