Cr4 F16                                 
   1.00000000000000     
     8.1029807169305315    0.0000023343913140   -0.0000002092502405
     0.0000021719207689    8.1011591159463645   -0.0000005187540125
     0.0000001174263786    0.0000000400774758    3.7868445566506521
   Cr   F 
     4    16
Direct
  0.3643486493716779  0.6356502015230134  0.4999999987305657
  0.6356291436936630  0.3643657128838527  0.4999999920186298
  0.1356286866966272  0.1356365359733829  0.0000000231380852
  0.8643512705755398  0.8643495265471088  0.9999999844585119
  0.6012995440299065  0.6013500892233168  0.4999999384537972
  0.3986638879198665  0.3986620147537536  0.5000000598905459
  0.8986684413535428  0.1013397878555722  0.0000000255424482
  0.1013003350394612  0.8986496394062513  0.9999999747775234
  0.8734916850784842  0.8735399869592229  0.4999999884648787
  0.1265288550742341  0.1264398467149590  0.5000000098603081
  0.6265295082399405  0.3735560382528433  0.9999999990534221
  0.3734965743735046  0.6264595766766305  0.0000000029297595
  0.1546126200359907  0.6110385461837353  0.4999999321591773
  0.8454035572567804  0.3889473672653665  0.5000000601624066
  0.3454016289283288  0.1110431334900781  0.9999999917137714
  0.6546162682932319  0.8889686441338114  0.0000000175241723
  0.6111581834326998  0.1545269077257814  0.4999999037423706
  0.3888517502065270  0.8454494997543591  0.5000001015032112
  0.1111671091926354  0.3454765929060883  0.0000000318525366
  0.8888523012073577  0.6545503517708653  0.9999999640238784
 
  0.00000000E+00  0.00000000E+00  0.00000000E+00
  0.00000000E+00  0.00000000E+00  0.00000000E+00
  0.00000000E+00  0.00000000E+00  0.00000000E+00
  0.00000000E+00  0.00000000E+00  0.00000000E+00
  0.00000000E+00  0.00000000E+00  0.00000000E+00
  0.00000000E+00  0.00000000E+00  0.00000000E+00
  0.00000000E+00  0.00000000E+00  0.00000000E+00
  0.00000000E+00  0.00000000E+00  0.00000000E+00
  0.00000000E+00  0.00000000E+00  0.00000000E+00
  0.00000000E+00  0.00000000E+00  0.00000000E+00
  0.00000000E+00  0.00000000E+00  0.00000000E+00
  0.00000000E+00  0.00000000E+00  0.00000000E+00
  0.00000000E+00  0.00000000E+00  0.00000000E+00
  0.00000000E+00  0.00000000E+00  0.00000000E+00
  0.00000000E+00  0.00000000E+00  0.00000000E+00
  0.00000000E+00  0.00000000E+00  0.00000000E+00
  0.00000000E+00  0.00000000E+00  0.00000000E+00
  0.00000000E+00  0.00000000E+00  0.00000000E+00
  0.00000000E+00  0.00000000E+00  0.00000000E+00
  0.00000000E+00  0.00000000E+00  0.00000000E+00
