Sodium iron trifluoride                 
   1.00000000000000     
     5.3535701668923785    0.0000088128335385   -0.0000010028867320
     0.0000122466842794    7.4037597067342293    0.0000043538972989
    -0.0000010180969437    0.0000030161353561    5.1002994606247984
   Fe   F 
     4    12
Direct
  0.5000236104209705  0.0000079264517846 -0.0000895261441682
  0.0000169617736944  0.0000160441856090  0.5000930713068242
  0.5000224557023141  0.4999899367587166 -0.0000938547588861
  0.0000194086877290  0.4999871532484532  0.5000897396234448
  0.4790381975028737  0.2500000237032133  0.1071390730557907
  0.5209151003605080  0.7499999387418963  0.8929961876083760
  0.0209156114296337  0.7500003043889981  0.6070060097767414
  0.9790338438348071  0.2500005606527635  0.3928599872501164
  0.2956514010603224  0.0514758533885699  0.7000967789514976
  0.7043535725686142  0.9485489255835873  0.2999167909695518
  0.2043536233876357  0.9485499683726253  0.2000845997757910
  0.7956472377964532  0.0514717378135800  0.7999034995112919
  0.7043531083198497  0.5514512515768797  0.2999152335942339
  0.2956515664201319  0.4485247005369843  0.7000968656846626
  0.7956509433362499  0.4485248252790052  0.7999018060850431
  0.2043533573982262  0.5514508493173408  0.2000837307096776
 
  0.00000000E+00  0.00000000E+00  0.00000000E+00
  0.00000000E+00  0.00000000E+00  0.00000000E+00
  0.00000000E+00  0.00000000E+00  0.00000000E+00
  0.00000000E+00  0.00000000E+00  0.00000000E+00
  0.00000000E+00  0.00000000E+00  0.00000000E+00
  0.00000000E+00  0.00000000E+00  0.00000000E+00
  0.00000000E+00  0.00000000E+00  0.00000000E+00
  0.00000000E+00  0.00000000E+00  0.00000000E+00
  0.00000000E+00  0.00000000E+00  0.00000000E+00
  0.00000000E+00  0.00000000E+00  0.00000000E+00
  0.00000000E+00  0.00000000E+00  0.00000000E+00
  0.00000000E+00  0.00000000E+00  0.00000000E+00
  0.00000000E+00  0.00000000E+00  0.00000000E+00
  0.00000000E+00  0.00000000E+00  0.00000000E+00
  0.00000000E+00  0.00000000E+00  0.00000000E+00
  0.00000000E+00  0.00000000E+00  0.00000000E+00
