Fe2 F4                                  
   1.00000000000000     
     4.7165841218663074   -0.0000009245580992   -0.0000000816967893
    -0.0000009205448748    4.7165054029170896   -0.0000001050988123
    -0.0000000864001595   -0.0000000790976219    3.3013275662999795
   Fe   F 
     2     4
Direct
  0.4999978599881371  0.4999975116994749  0.4999999987761403
 -0.0000021364555058  0.0000024839903295  0.0000000033802154
  0.1985221124953638  0.8014739452829424  0.4999999899192115
  0.8014800280029956  0.1985176051460571  0.5000000098099594
  0.3014800502695708  0.3014824592448402 -0.0000001521843191
  0.6985220856994385  0.6985259946363559  0.0000001502987927
 
  0.00000000E+00  0.00000000E+00  0.00000000E+00
  0.00000000E+00  0.00000000E+00  0.00000000E+00
  0.00000000E+00  0.00000000E+00  0.00000000E+00
  0.00000000E+00  0.00000000E+00  0.00000000E+00
  0.00000000E+00  0.00000000E+00  0.00000000E+00
  0.00000000E+00  0.00000000E+00  0.00000000E+00
