Sodium trifluoromanganate(II)           
   1.00000000000000     
     5.7359764704524778    0.0000000612430804   -0.0000007411081144
     0.0000000873194566    7.9387472715999206    0.0000005861574340
    -0.0000007062464182    0.0000003938757015    5.4862494278630853
   Na   Mn   F 
     4     4    12
Direct
  0.0591617624044199  0.2500001783536752  0.9868472878433534
  0.9408388125138876  0.7500001677047314  0.0131523286014210
  0.4408378280690021  0.7500000407240727  0.4868475413450081
  0.5591620578050668  0.2500000952951357  0.5131521696772744
  0.4999991439410173  0.5000014821400772  0.9999996488171835
  0.0000001410707613  0.4999979449231713  0.4999993654041581
  0.4999996910975259  0.0000011750035671  0.0000003719459133
  0.0000012902877497  0.9999987795279623  0.5000009011502776
  0.4393421151416338  0.2500008871660828  0.1222631564644655
  0.5606583548014603  0.7500007285632708  0.8777369102058270
  0.0606579019966033  0.7499985901001689  0.6222625086061511
  0.9393419217352734  0.2499986186634092  0.3777367520153981
  0.1903231724370546  0.5640373721955009  0.1846505386906893
  0.8096768892501752  0.4359624729611756  0.8153503266086813
  0.3096767806955397  0.4359631657802580  0.6846500928505852
  0.6903229699209192  0.5640374770336477  0.3153497950758490
  0.8096766848942367  0.0640374642138102  0.8153498918201783
  0.1903230861032732  0.9359625781551220  0.1846500072767650
  0.6903228512183862  0.9359628957200907  0.3153500312851190
  0.3096765676160336  0.0640378857750774  0.6846503233156941
 
  0.00000000E+00  0.00000000E+00  0.00000000E+00
  0.00000000E+00  0.00000000E+00  0.00000000E+00
  0.00000000E+00  0.00000000E+00  0.00000000E+00
  0.00000000E+00  0.00000000E+00  0.00000000E+00
  0.00000000E+00  0.00000000E+00  0.00000000E+00
  0.00000000E+00  0.00000000E+00  0.00000000E+00
  0.00000000E+00  0.00000000E+00  0.00000000E+00
  0.00000000E+00  0.00000000E+00  0.00000000E+00
  0.00000000E+00  0.00000000E+00  0.00000000E+00
  0.00000000E+00  0.00000000E+00  0.00000000E+00
  0.00000000E+00  0.00000000E+00  0.00000000E+00
  0.00000000E+00  0.00000000E+00  0.00000000E+00
  0.00000000E+00  0.00000000E+00  0.00000000E+00
  0.00000000E+00  0.00000000E+00  0.00000000E+00
  0.00000000E+00  0.00000000E+00  0.00000000E+00
  0.00000000E+00  0.00000000E+00  0.00000000E+00
  0.00000000E+00  0.00000000E+00  0.00000000E+00
  0.00000000E+00  0.00000000E+00  0.00000000E+00
  0.00000000E+00  0.00000000E+00  0.00000000E+00
  0.00000000E+00  0.00000000E+00  0.00000000E+00
