Mn8 F32                                 
   1.00000000000000     
    -0.0002456759212443    0.0000327487757082   -5.9795910437837536
    -6.3307510835344649   -6.3283796910574486   -2.9900223036014424
    -6.3300211324945526    6.3277081045659118   -2.9900905842126666
   Mn   F 
     8    32
Direct
  0.1158638715495499  0.7406762416895845  0.4998744529993928
  0.3561539210100193  0.7592812448265676  0.9999211546065823
  0.6157452834061488  0.9999688221222769  0.7403817306460496
  0.3561032145896306  0.4999683013418377  0.7594838341986687
  0.8841348091549079  0.2593230469356058  0.5001245440965789
  0.6438477308435964  0.2407193318581164  0.0000765599342145
  0.3842575974769886  0.0000305932148947  0.2596171659447322
  0.6438966077892729  0.5000306570361843  0.2405152313250767
  0.3038748433558709  0.5929203517630270  0.3560251836842454
  0.2529507418330326  0.9069820218217615  0.1439395145358588
  0.6593822883375822  0.1438320289641339  0.5922045893113719
  0.3958827597978356  0.3561388526635838  0.9076694938606664
  0.6961206336445898  0.4070825269250733  0.6439745291521888
  0.7470503276432012  0.0930215964477554  0.8560599157293396
  0.3406225045493301  0.8561646519824677  0.4077896791462763
  0.6041245403472288  0.6438559942570734  0.0923269232170725
  0.5081626887671149  0.3870614709449285  0.1474162552648721
  0.0423819223305770  0.1129800660174709  0.3527309879612872
  0.6556359211987939  0.3523985373342384  0.3866062951459170
  0.3948032634351009  0.1476163363368528  0.1134664310660369
  0.4918340698859964  0.6129375301858033  0.8525878082298775
  0.9576191143447019  0.8870198319659650  0.6472719871249240
  0.3443619516791117  0.6476029447837135  0.6133944011165298
  0.6051971150424222  0.8523850091426866  0.8865351731968403
  0.9324477567328699  0.8338104521096810  0.3901639229847049
  0.1561984947621227  0.6661383369677338  0.1096607359098059
  0.3228230112078947  0.1097138096514527  0.8338387437023087
  0.2666036127399920  0.3900778073249000  0.6660608227806506
  0.0675471482921353  0.1661921787821399  0.6098386610797206
  0.8437963755812561  0.3338653144831980  0.8903430329064363
  0.6771795152601143  0.8902883335998411  0.1661556049949908
  0.7333968479865831  0.6099225835290341  0.3339364816147210
  0.9264177335614221  0.6342420613689654  0.5925187244597225
  0.1528245920393161  0.8657518665473205  0.9073771713654111
  0.5180156610217423  0.9077636782383962  0.6341957344097864
  0.0598314397688497  0.5921300962845493  0.8657754865676495
  0.0735788240823751  0.3657608765058811  0.4074820089275306
  0.8471762139736825  0.1342489959425990  0.0926233666403107
  0.4819867359661245  0.0922306790572094  0.3658077497390266
  0.9401683150109150  0.4078649390455027  0.1342279104226165
 
  0.00000000E+00  0.00000000E+00  0.00000000E+00
  0.00000000E+00  0.00000000E+00  0.00000000E+00
  0.00000000E+00  0.00000000E+00  0.00000000E+00
  0.00000000E+00  0.00000000E+00  0.00000000E+00
  0.00000000E+00  0.00000000E+00  0.00000000E+00
  0.00000000E+00  0.00000000E+00  0.00000000E+00
  0.00000000E+00  0.00000000E+00  0.00000000E+00
  0.00000000E+00  0.00000000E+00  0.00000000E+00
  0.00000000E+00  0.00000000E+00  0.00000000E+00
  0.00000000E+00  0.00000000E+00  0.00000000E+00
  0.00000000E+00  0.00000000E+00  0.00000000E+00
  0.00000000E+00  0.00000000E+00  0.00000000E+00
  0.00000000E+00  0.00000000E+00  0.00000000E+00
  0.00000000E+00  0.00000000E+00  0.00000000E+00
  0.00000000E+00  0.00000000E+00  0.00000000E+00
  0.00000000E+00  0.00000000E+00  0.00000000E+00
  0.00000000E+00  0.00000000E+00  0.00000000E+00
  0.00000000E+00  0.00000000E+00  0.00000000E+00
  0.00000000E+00  0.00000000E+00  0.00000000E+00
  0.00000000E+00  0.00000000E+00  0.00000000E+00
  0.00000000E+00  0.00000000E+00  0.00000000E+00
  0.00000000E+00  0.00000000E+00  0.00000000E+00
  0.00000000E+00  0.00000000E+00  0.00000000E+00
  0.00000000E+00  0.00000000E+00  0.00000000E+00
  0.00000000E+00  0.00000000E+00  0.00000000E+00
  0.00000000E+00  0.00000000E+00  0.00000000E+00
  0.00000000E+00  0.00000000E+00  0.00000000E+00
  0.00000000E+00  0.00000000E+00  0.00000000E+00
  0.00000000E+00  0.00000000E+00  0.00000000E+00
  0.00000000E+00  0.00000000E+00  0.00000000E+00
  0.00000000E+00  0.00000000E+00  0.00000000E+00
  0.00000000E+00  0.00000000E+00  0.00000000E+00
  0.00000000E+00  0.00000000E+00  0.00000000E+00
  0.00000000E+00  0.00000000E+00  0.00000000E+00
  0.00000000E+00  0.00000000E+00  0.00000000E+00
  0.00000000E+00  0.00000000E+00  0.00000000E+00
  0.00000000E+00  0.00000000E+00  0.00000000E+00
  0.00000000E+00  0.00000000E+00  0.00000000E+00
  0.00000000E+00  0.00000000E+00  0.00000000E+00
  0.00000000E+00  0.00000000E+00  0.00000000E+00
