Cr2 F6                                  
   1.00000000000000     
     4.4051874119597523   -0.0106990137545313    2.8823171905811540
     1.5548424812652324    4.1215101779026568    2.8823061860138419
    -0.0147055480704869   -0.0105588602519074    5.2624612164981679
   Cr   F 
     2     6
Direct
  0.5000606859608533  0.5000885009002309  0.4999306987977934
  0.0000941593962977  0.0000773895028181 -0.0000868615607584
  0.6307729127884970  0.2506676459781623  0.8691314759293053
  0.2495385093802571  0.8692829263022609  0.6306865024511012
  0.8685697324621168  0.6312215011529416  0.2500690670364810
  0.3691717257899913  0.7494576757503585  0.1307904725633928
  0.7505642247217900  0.1306582976081743  0.3692637155369401
  0.1312280495001969  0.3685460628050535  0.7502149292457447
 
  0.00000000E+00  0.00000000E+00  0.00000000E+00
  0.00000000E+00  0.00000000E+00  0.00000000E+00
  0.00000000E+00  0.00000000E+00  0.00000000E+00
  0.00000000E+00  0.00000000E+00  0.00000000E+00
  0.00000000E+00  0.00000000E+00  0.00000000E+00
  0.00000000E+00  0.00000000E+00  0.00000000E+00
  0.00000000E+00  0.00000000E+00  0.00000000E+00
  0.00000000E+00  0.00000000E+00  0.00000000E+00
