Na3 Mn4 F12                             
   1.00000000000000     
     5.6644059022295385   -0.0000027717186847   -0.0197923067999741
    -0.0000038115404307    7.8405012338359334   -0.0003956297493700
    -0.0193839011555246   -0.0002746529403496    5.4464318528050111
   Na   Mn   F 
     3     4    12
Direct
  0.0603966156339686  0.2499869039887447  0.9796780785874507
  0.4343339516457667  0.7499431272407332  0.4828791939801029
  0.9442680093548761  0.7499921716597006  0.0123018797295839
  0.9925541274182185  0.4959236586483003  0.4998588735636203
  0.5019987283805645  0.0034154493440728  0.9994959815868134
  0.9925576740821691  0.0041041613046359  0.4998541166823683
  0.5019964975644452  0.4966016661758674  0.9994317993674756
  0.9716231962423373  0.2500034307170137  0.3847332377497318
  0.4546885861708579  0.2500283957880337  0.0891398589758683
  0.0312838569696228  0.7500303692836916  0.6029002693332365
  0.5381424055330735  0.7500226759648694  0.8904112650712970
  0.7027338142649440  0.5668278387068715  0.2990258468286033
  0.2029401973648220  0.9378706229611479  0.2014493968474167
  0.2879382979222906  0.0426103806426202  0.7063358783607666
  0.8179138294063122  0.4564042939568364  0.8264791761005089
  0.2878776636044668  0.4574663496978000  0.7063604584224085
  0.8179170823831641  0.0436438583069686  0.8265198241181558
  0.7027006571263235  0.9330377402718960  0.2990654968014424
  0.2029348089317726  0.5620869053402106  0.2014793678931609
 
  0.00000000E+00  0.00000000E+00  0.00000000E+00
  0.00000000E+00  0.00000000E+00  0.00000000E+00
  0.00000000E+00  0.00000000E+00  0.00000000E+00
  0.00000000E+00  0.00000000E+00  0.00000000E+00
  0.00000000E+00  0.00000000E+00  0.00000000E+00
  0.00000000E+00  0.00000000E+00  0.00000000E+00
  0.00000000E+00  0.00000000E+00  0.00000000E+00
  0.00000000E+00  0.00000000E+00  0.00000000E+00
  0.00000000E+00  0.00000000E+00  0.00000000E+00
  0.00000000E+00  0.00000000E+00  0.00000000E+00
  0.00000000E+00  0.00000000E+00  0.00000000E+00
  0.00000000E+00  0.00000000E+00  0.00000000E+00
  0.00000000E+00  0.00000000E+00  0.00000000E+00
  0.00000000E+00  0.00000000E+00  0.00000000E+00
  0.00000000E+00  0.00000000E+00  0.00000000E+00
  0.00000000E+00  0.00000000E+00  0.00000000E+00
  0.00000000E+00  0.00000000E+00  0.00000000E+00
  0.00000000E+00  0.00000000E+00  0.00000000E+00
  0.00000000E+00  0.00000000E+00  0.00000000E+00
