Cr2 F4                                  
   1.00000000000000     
     4.6827813574623089    0.0000026242890358   -0.5414803616516314
     0.0000028817762169    4.6881460755156370    0.0000022058842455
     0.0019473741133979    0.0000016287167846    3.5490313965595668
   Cr   F 
     2     4
Direct
  0.5000007059210225  0.5000007291622942  0.4999990828937035
  0.0000007149529806 -0.0000007350292561 -0.0000009304275570
  0.2001248994208599  0.8002668947764534  0.4557250873558590
  0.7001247872676333  0.6997330215637649  0.9557257696187049
  0.7998744000223381  0.1997342811831849  0.5442758229797291
  0.2998744924151653  0.3002658083435585  0.0442751675795606
 
  0.00000000E+00  0.00000000E+00  0.00000000E+00
  0.00000000E+00  0.00000000E+00  0.00000000E+00
  0.00000000E+00  0.00000000E+00  0.00000000E+00
  0.00000000E+00  0.00000000E+00  0.00000000E+00
  0.00000000E+00  0.00000000E+00  0.00000000E+00
  0.00000000E+00  0.00000000E+00  0.00000000E+00
