Fe2 F6                                  
   1.00000000000000     
     4.5514521873858911    0.0003207985434919    2.8512382612071510
     1.5785161361176263    4.2689583156286490    2.8512383424861225
     0.0004601895010628    0.0003205751322409    5.3707799301276022
   Fe   F 
     2     6
Direct
  0.4999999802842865  0.5000000816179977  0.5000000280654717
  0.0000001082622632  0.0000000246523086  0.0000000244484397
  0.6603700910045802  0.2499998854544572  0.8396300503036684
  0.2499999765796517  0.8396299693578015  0.6603700840008386
  0.8396300753273991  0.6603701082332094  0.2499998993002350
  0.3396297976119342  0.7500001493518482  0.1603699200771160
  0.7500000661037234  0.1603699191432000  0.3396298746125339
  0.1603699048261689  0.3396298621891773  0.7500001191916965
 
  0.00000000E+00  0.00000000E+00  0.00000000E+00
  0.00000000E+00  0.00000000E+00  0.00000000E+00
  0.00000000E+00  0.00000000E+00  0.00000000E+00
  0.00000000E+00  0.00000000E+00  0.00000000E+00
  0.00000000E+00  0.00000000E+00  0.00000000E+00
  0.00000000E+00  0.00000000E+00  0.00000000E+00
  0.00000000E+00  0.00000000E+00  0.00000000E+00
  0.00000000E+00  0.00000000E+00  0.00000000E+00
