Trisodium hexafluorochromate(III)       
   1.00000000000000     
     5.4062945647500635   -0.0000169479188978   -0.0082244352209272
    -0.0000043152853802    5.6647763671563789   -0.0000112644316929
    -5.4829070061053846   -0.0000108625695737    7.8176741704579014
   Na   Cr   F 
     6     2    12
Direct
  0.5000042358161764 -0.0000012683052624  0.5000182365891371
  0.4999982517398212  0.5000041526714899  0.0000163259713500
  0.7640754739265092  0.9385129369263571  0.2448014400374199
  0.2359746164159164  0.0615627941448058  0.7552180515615847
  0.2359792722274190  0.4384433733842222  0.2552190476101977
  0.7640790302887993  0.5614957891249750  0.7448028431020646
 -0.0000776707299063  0.9998248569698547 -0.0000305563622790
 -0.0000674144392669  0.5001238002304762  0.5000190007931725
  0.3493812979863232  0.0569949478611602  0.2290607827328243
  0.6506592156957737  0.9429996360303630  0.7709614940015058
  0.6506521199850209  0.5570195187723460  0.2709510535679013
  0.3493994941080491  0.4429980164567192  0.7290688521495958
  0.7635935970669073  0.1780681022189154  0.0538486622284819
  0.2363436142401759  0.8218769897341049  0.9461282976771128
  0.2363803045435895  0.6781445031265289  0.4461212059519294
  0.7635975926411014  0.3219536200915591  0.5538429621402837
  0.0957375537887933  0.2819347563364696  0.9276429490583563
  0.9042680191445821  0.7181776061179168  0.0723408185094334
  0.9042811405061308  0.7818236877024716  0.5723383240841738
  0.0957403430480989  0.2180421354045406  0.4276301895957559
 
  0.00000000E+00  0.00000000E+00  0.00000000E+00
  0.00000000E+00  0.00000000E+00  0.00000000E+00
  0.00000000E+00  0.00000000E+00  0.00000000E+00
  0.00000000E+00  0.00000000E+00  0.00000000E+00
  0.00000000E+00  0.00000000E+00  0.00000000E+00
  0.00000000E+00  0.00000000E+00  0.00000000E+00
  0.00000000E+00  0.00000000E+00  0.00000000E+00
  0.00000000E+00  0.00000000E+00  0.00000000E+00
  0.00000000E+00  0.00000000E+00  0.00000000E+00
  0.00000000E+00  0.00000000E+00  0.00000000E+00
  0.00000000E+00  0.00000000E+00  0.00000000E+00
  0.00000000E+00  0.00000000E+00  0.00000000E+00
  0.00000000E+00  0.00000000E+00  0.00000000E+00
  0.00000000E+00  0.00000000E+00  0.00000000E+00
  0.00000000E+00  0.00000000E+00  0.00000000E+00
  0.00000000E+00  0.00000000E+00  0.00000000E+00
  0.00000000E+00  0.00000000E+00  0.00000000E+00
  0.00000000E+00  0.00000000E+00  0.00000000E+00
  0.00000000E+00  0.00000000E+00  0.00000000E+00
  0.00000000E+00  0.00000000E+00  0.00000000E+00
