Na3 Mn4 F12                             
   1.00000000000000     
     5.6867696550395275    0.0000056328548331   -0.0457816058845577
     0.0000088903061730    7.8716603148383291    0.0000582538934664
    -0.0447579541373403    0.0000406468034190    5.4560560701318241
   Na   Mn   F 
     3     4    12
Direct
  0.0587130152791726  0.2500173122467422  0.9812943524765562
  0.4319159756094775  0.7499911211324656  0.4794318405840057
  0.9458087808196679  0.7499893839843054  0.0101539462307824
  0.9925391043271641  0.4960279172371011  0.5001621220303865
  0.5017402889114015  0.0033325606961606  0.9996086893294264
  0.9925395477578469  0.0039746457099782  0.5001563779298530
  0.5017423510014635  0.4966692964488015  0.9996122870007358
  0.9705720542146948  0.2500082077561993  0.3831603900066860
  0.4522435965883184  0.2500000759999868  0.0900610503887974
  0.0333341645423484  0.7499919842598748  0.6036169887288081
  0.5379509775866744  0.7499967462799875  0.8871068598158808
  0.7018338123034972  0.5668659847511486  0.2993717090725630
  0.2033270086965003  0.9361017557876627  0.2014820519842477
  0.2883340115220492  0.0437084523445903  0.7066218337547473
  0.8203551484779593  0.4571056136870376  0.8290348284645659
  0.2883308162204634  0.4562843675105234  0.7066248741869657
  0.8203667192050303  0.0428965166000192  0.8290393990908945
  0.7018207217435966  0.9331570312163390  0.2993689312531612
  0.2033319051926838  0.5638810263510761  0.2014914676709264
 
  0.00000000E+00  0.00000000E+00  0.00000000E+00
  0.00000000E+00  0.00000000E+00  0.00000000E+00
  0.00000000E+00  0.00000000E+00  0.00000000E+00
  0.00000000E+00  0.00000000E+00  0.00000000E+00
  0.00000000E+00  0.00000000E+00  0.00000000E+00
  0.00000000E+00  0.00000000E+00  0.00000000E+00
  0.00000000E+00  0.00000000E+00  0.00000000E+00
  0.00000000E+00  0.00000000E+00  0.00000000E+00
  0.00000000E+00  0.00000000E+00  0.00000000E+00
  0.00000000E+00  0.00000000E+00  0.00000000E+00
  0.00000000E+00  0.00000000E+00  0.00000000E+00
  0.00000000E+00  0.00000000E+00  0.00000000E+00
  0.00000000E+00  0.00000000E+00  0.00000000E+00
  0.00000000E+00  0.00000000E+00  0.00000000E+00
  0.00000000E+00  0.00000000E+00  0.00000000E+00
  0.00000000E+00  0.00000000E+00  0.00000000E+00
  0.00000000E+00  0.00000000E+00  0.00000000E+00
  0.00000000E+00  0.00000000E+00  0.00000000E+00
  0.00000000E+00  0.00000000E+00  0.00000000E+00
