Ti2 F6                                  
   1.00000000000000     
     4.7832774874899568   -0.0063458692080258    2.8951067558799277
     1.6081723665187984    4.4034931654180269    2.8961493845801418
    -0.0181305871619946   -0.0208722345355470    5.6262757105207388
   Ti   F 
     2     6
Direct
  0.5000101083859789  0.5000339223310419  0.4999351800372622
  0.0000114095568833  0.9999993679224772  0.9999882886743094
  0.6788365152443276  0.2436413773118602  0.8306808633208149
  0.2522383182962642  0.8320589213758964  0.6664975470310637
  0.8344314494466971  0.6576541641692089  0.2443257483155961
  0.3212023117470935  0.7564781954714164  0.1692563376063205
  0.7476245199226952  0.1679174287158034  0.3335409080890201
  0.1656453674000673  0.3422166227023027  0.7557751269256201
 
  0.00000000E+00  0.00000000E+00  0.00000000E+00
  0.00000000E+00  0.00000000E+00  0.00000000E+00
  0.00000000E+00  0.00000000E+00  0.00000000E+00
  0.00000000E+00  0.00000000E+00  0.00000000E+00
  0.00000000E+00  0.00000000E+00  0.00000000E+00
  0.00000000E+00  0.00000000E+00  0.00000000E+00
  0.00000000E+00  0.00000000E+00  0.00000000E+00
  0.00000000E+00  0.00000000E+00  0.00000000E+00
