Na3 Co4 F12                             
   1.00000000000000     
     5.5112070369293651   -0.0019650904353859    0.0082504699480204
    -0.0015026829241631    7.6316994381258381   -0.0140127444112116
    -0.0141037119977634   -0.0023476500454968    5.3217267249283422
   Na   Co   F 
     3     4    12
Direct
  0.0616763979305381  0.2522754828314591  0.9812594855478557
  0.4390530230025341  0.7507837150136085  0.4826805017435342
  0.9423105199257862  0.7492539181365344  0.0128701785424660
  0.9920134132184484  0.4952714998023389  0.4990965059422871
  0.5006900999440682  0.0048003443706702  0.9969006697083648
  0.9920051358391361  0.0049343933309091  0.4993043723165367
  0.5016994367488329  0.4936974650733834  0.9955514996328494
  0.9719233767045431  0.2498633820265866  0.3932326885689086
  0.4630592144813963  0.2495541280765906  0.0978416758675635
  0.0279989042601474  0.7503301131124157  0.5974077092387415
  0.5325677979788079  0.7496780525122250  0.8912764377979471
  0.7039977872599530  0.5638695074292278  0.2926817631258026
  0.2024939191324386  0.9417578613368396  0.2000458883417135
  0.2917746830463160  0.0464114758436055  0.7044815191385345
  0.8159833175946085  0.4594547987546539  0.8208857433115759
  0.2910332451436160  0.4534571191604011  0.7047244362615593
  0.8150418410664141  0.0431413790215049  0.8209766768360317
  0.7044485174960917  0.9356695183192920  0.2926339677590393
  0.2021293692263119  0.5557958458477542  0.1992482803186950
 
  0.00000000E+00  0.00000000E+00  0.00000000E+00
  0.00000000E+00  0.00000000E+00  0.00000000E+00
  0.00000000E+00  0.00000000E+00  0.00000000E+00
  0.00000000E+00  0.00000000E+00  0.00000000E+00
  0.00000000E+00  0.00000000E+00  0.00000000E+00
  0.00000000E+00  0.00000000E+00  0.00000000E+00
  0.00000000E+00  0.00000000E+00  0.00000000E+00
  0.00000000E+00  0.00000000E+00  0.00000000E+00
  0.00000000E+00  0.00000000E+00  0.00000000E+00
  0.00000000E+00  0.00000000E+00  0.00000000E+00
  0.00000000E+00  0.00000000E+00  0.00000000E+00
  0.00000000E+00  0.00000000E+00  0.00000000E+00
  0.00000000E+00  0.00000000E+00  0.00000000E+00
  0.00000000E+00  0.00000000E+00  0.00000000E+00
  0.00000000E+00  0.00000000E+00  0.00000000E+00
  0.00000000E+00  0.00000000E+00  0.00000000E+00
  0.00000000E+00  0.00000000E+00  0.00000000E+00
  0.00000000E+00  0.00000000E+00  0.00000000E+00
  0.00000000E+00  0.00000000E+00  0.00000000E+00
