Cr2 F4                                  
   1.00000000000000     
     4.6803382191675382    0.0000043800195248   -0.5523310753298268
     0.0000044931029224    4.6826777776795163    0.0000008409763047
    -0.0051287319580784    0.0000006027232428    3.5572040715096649
   Cr   F 
     2     4
Direct
  0.5000006031847164  0.5000009137777255  0.4999987413252569
  0.0000006414241653  0.9999990619602386  0.9999987229766916
  0.2002667215102463  0.8001039769233458  0.4548599221760057
  0.7002662489662015  0.6998955152943296  0.9548601022112422
  0.7997326685684030  0.1998974950157972  0.5451413262565623
  0.2997331163462746  0.3001030370285633  0.0451411850542414
 
  0.00000000E+00  0.00000000E+00  0.00000000E+00
  0.00000000E+00  0.00000000E+00  0.00000000E+00
  0.00000000E+00  0.00000000E+00  0.00000000E+00
  0.00000000E+00  0.00000000E+00  0.00000000E+00
  0.00000000E+00  0.00000000E+00  0.00000000E+00
  0.00000000E+00  0.00000000E+00  0.00000000E+00
