Co2 F4                                  
   1.00000000000000     
     4.6780860955778767   -0.0000154673589775    0.0000001082861393
     0.0000409207551055    4.6777334104386545   -0.0000002538758281
     0.0000000809077979   -0.0000002372296782    3.1752664242510016
   Co   F 
     2     4
Direct
  0.5000798003810927  0.5000193803097425  0.5000000037398370
  0.0000830952309109 -0.0000187439092174  0.0000000046807008
  0.1955744204126049  0.8044540126877791  0.4999999762770866
  0.8043432672246075  0.1956719815886107  0.5000000189802002
  0.3043454591990508  0.3043224549266045 -0.0000000308173866
  0.6955739575517331  0.6955509143964805  0.0000000271395619
 
  0.00000000E+00  0.00000000E+00  0.00000000E+00
  0.00000000E+00  0.00000000E+00  0.00000000E+00
  0.00000000E+00  0.00000000E+00  0.00000000E+00
  0.00000000E+00  0.00000000E+00  0.00000000E+00
  0.00000000E+00  0.00000000E+00  0.00000000E+00
  0.00000000E+00  0.00000000E+00  0.00000000E+00
