Cr4 F16                                 
   1.00000000000000     
     8.1279873228494335    0.0000064735781114   -0.0000511000425604
     0.0000063468897695    8.1242527462102796    0.0000454530767414
    -0.0000234751880130    0.0000208802400078    3.7953164470835370
   Cr   F 
     4    16
Direct
  0.3641994749866768  0.6357800311723452  0.4999996115138288
  0.6357658317766024  0.3642500522356897  0.4999969833475575
  0.1357796593855838  0.1357665086901676  0.0000000937473530
  0.8642113568833736  0.8642370619054986  0.0000049356138092
  0.6009220891582601  0.6010107326647400  0.5000011356588132
  0.3990758859547014  0.3989831493705012  0.5000001014546811
  0.8990789065262987  0.1010171608179604  0.9999924624444745
  0.1009188445923428  0.8989929209474852  0.0000056238116102
  0.8734326726507220  0.8735190040830787  0.4999975768962130
  0.1265546441980163  0.1264917810414659  0.5000002135692796
  0.6265552408941844  0.3735071297955415  0.0000041398458279
  0.3734363353266232  0.6264801788525958  0.9999988587299740
  0.1549666316997147  0.6105676155414343  0.4999963258547524
  0.8450547392671126  0.3894659146895094  0.5000046014171673
  0.3450380055828930  0.1105310102642107  0.0000026383256539
  0.6549508233030608  0.8894318746157381  0.9999937358238782
  0.6106933508614389  0.1548434986263842  0.5000048749145947
  0.3893323651805147  0.8451276118716038  0.4999973900436885
  0.1107012223741890  0.3451388512145499  0.9999960975752913
  0.8893319193976978  0.6548579115995068  0.0000025994115518
 
  0.00000000E+00  0.00000000E+00  0.00000000E+00
  0.00000000E+00  0.00000000E+00  0.00000000E+00
  0.00000000E+00  0.00000000E+00  0.00000000E+00
  0.00000000E+00  0.00000000E+00  0.00000000E+00
  0.00000000E+00  0.00000000E+00  0.00000000E+00
  0.00000000E+00  0.00000000E+00  0.00000000E+00
  0.00000000E+00  0.00000000E+00  0.00000000E+00
  0.00000000E+00  0.00000000E+00  0.00000000E+00
  0.00000000E+00  0.00000000E+00  0.00000000E+00
  0.00000000E+00  0.00000000E+00  0.00000000E+00
  0.00000000E+00  0.00000000E+00  0.00000000E+00
  0.00000000E+00  0.00000000E+00  0.00000000E+00
  0.00000000E+00  0.00000000E+00  0.00000000E+00
  0.00000000E+00  0.00000000E+00  0.00000000E+00
  0.00000000E+00  0.00000000E+00  0.00000000E+00
  0.00000000E+00  0.00000000E+00  0.00000000E+00
  0.00000000E+00  0.00000000E+00  0.00000000E+00
  0.00000000E+00  0.00000000E+00  0.00000000E+00
  0.00000000E+00  0.00000000E+00  0.00000000E+00
  0.00000000E+00  0.00000000E+00  0.00000000E+00
