Cr4 F16
1.0
8.296000 0.000000 0.000000
0.000000 8.296000 0.000000
0.000000 0.000000 3.737000
Cr F
4 16
direct
0.367400 0.632600 0.500000 Cr4+
0.632600 0.367400 0.500000 Cr4+
0.132600 0.132600 0.000000 Cr4+
0.867400 0.867400 0.000000 Cr4+
0.597500 0.597500 0.500000 F-
0.402500 0.402500 0.500000 F-
0.902500 0.097500 0.000000 F-
0.097500 0.902500 0.000000 F-
0.873000 0.873000 0.500000 F-
0.127000 0.127000 0.500000 F-
0.627000 0.373000 0.000000 F-
0.373000 0.627000 0.000000 F-
0.165900 0.608400 0.500000 F-
0.834100 0.391600 0.500000 F-
0.334100 0.108400 0.000000 F-
0.665900 0.891600 0.000000 F-
0.608400 0.165900 0.500000 F-
0.391600 0.834100 0.500000 F-
0.108400 0.334100 0.000000 F-
0.891600 0.665900 0.000000 F-
