Sodium iron trifluoride                 
   1.00000000000000     
     5.6128833063653465    0.0000014167053603   -0.0001140370872200
     0.0000024416262437    7.8959578672820552    0.0000006954139716
    -0.0001038392663128    0.0000005486460412    5.3901377733767868
   Na   Fe   F 
     4     4    12
Direct
  0.0575328772694400  0.2500002240942690  0.9837778733409281
  0.9424671736434775  0.7499997685260748  0.0162209135950116
  0.4424684324729502  0.7499995327843311  0.4837953392958604
  0.5575294872755099  0.2500004596840802  0.5162175346735229
  0.5000096362404410  0.0000010091833577  0.0000116107131767
  0.0000077673813154  0.0000002022418863  0.4999872995863374
  0.5000096459322775  0.4999989924925763  0.0000116062431339
  0.0000077695207905  0.4999998005527121  0.4999872923775625
  0.4450911359918104  0.2499999837547441  0.1174693135206786
  0.5549281178052617  0.7500000173444029  0.8825204339117537
  0.0549464522232714  0.7500001276592577  0.6174968934978577
  0.9450691745744325  0.2499998736247897  0.3825233865202973
  0.2925230115679622  0.0629314928001308  0.6857657074170365
  0.7074642786333770  0.9370662593594544  0.3142139107101303
  0.2074634223977294  0.9370948489113402  0.1857935306924233
  0.7925154189053034  0.0629124830745863  0.8142171033198585
  0.7074636051209774  0.5629330822826328  0.3142147857037788
  0.2925237255103008  0.4370691669948309  0.6857648407422002
  0.7925157900612927  0.4370881985830931  0.8142174469109594
  0.2074630814720865  0.5629044760514494  0.1857931702274878
 
  0.00000000E+00  0.00000000E+00  0.00000000E+00
  0.00000000E+00  0.00000000E+00  0.00000000E+00
  0.00000000E+00  0.00000000E+00  0.00000000E+00
  0.00000000E+00  0.00000000E+00  0.00000000E+00
  0.00000000E+00  0.00000000E+00  0.00000000E+00
  0.00000000E+00  0.00000000E+00  0.00000000E+00
  0.00000000E+00  0.00000000E+00  0.00000000E+00
  0.00000000E+00  0.00000000E+00  0.00000000E+00
  0.00000000E+00  0.00000000E+00  0.00000000E+00
  0.00000000E+00  0.00000000E+00  0.00000000E+00
  0.00000000E+00  0.00000000E+00  0.00000000E+00
  0.00000000E+00  0.00000000E+00  0.00000000E+00
  0.00000000E+00  0.00000000E+00  0.00000000E+00
  0.00000000E+00  0.00000000E+00  0.00000000E+00
  0.00000000E+00  0.00000000E+00  0.00000000E+00
  0.00000000E+00  0.00000000E+00  0.00000000E+00
  0.00000000E+00  0.00000000E+00  0.00000000E+00
  0.00000000E+00  0.00000000E+00  0.00000000E+00
  0.00000000E+00  0.00000000E+00  0.00000000E+00
  0.00000000E+00  0.00000000E+00  0.00000000E+00
