Cu2 F4                                  
   1.00000000000000     
     3.3109999131414174   -0.0000001307152871    0.3921432855940143
    -0.0000002362898895    4.5030137886821215    0.0000002966904259
     0.0230578653628754    0.0000002985952372    4.5407785134588510
   Cu   F 
     2     4
Direct
  0.5000677535670564  0.4999989242708466  0.5001029783348118
  0.0000676258115048  0.0000000882157551  0.0001031507350524
  0.5394700157981849  0.7978065207568654  0.2033374996747225
  0.0394693365565326  0.7021939473257133  0.7033375173792756
  0.4604630023782160  0.2022404536045211  0.7965594650962166
  0.9604622658885053  0.2977600658262982  0.2965593887799208
 
  0.00000000E+00  0.00000000E+00  0.00000000E+00
  0.00000000E+00  0.00000000E+00  0.00000000E+00
  0.00000000E+00  0.00000000E+00  0.00000000E+00
  0.00000000E+00  0.00000000E+00  0.00000000E+00
  0.00000000E+00  0.00000000E+00  0.00000000E+00
  0.00000000E+00  0.00000000E+00  0.00000000E+00
