Cu2 F4
1.0
3.274735 0.000000 0.385099
0.000000 4.562400 0.000000
0.000000 0.000000 4.615700
Cu F
2 4
direct
0.500000 0.500000 0.500000 Cu2+
0.000000 0.000000 0.000000 Cu2+
0.541760 0.794100 0.205900 F-
0.041760 0.705900 0.705900 F-
0.458240 0.205900 0.794100 F-
0.958240 0.294100 0.294100 F-
