Na3 Mn4 F12                             
   1.00000000000000     
     5.6467890251903299   -0.0005623201135292   -0.0255714313712582
    -0.0007740726025497    7.8063124288588437    0.0001526294705204
    -0.0250986016213216    0.0001057915962599    5.4271778951058316
   Na   Mn   F 
     3     4    12
Direct
  0.0613614935316543  0.2499441861502706  0.9812748263182753
  0.4340351616366017  0.7497307188488852  0.4822618121819613
  0.9447694642722357  0.7499924053464225  0.0118191521490066
  0.9918548243009273  0.4960363473084786  0.4998131946017920
  0.5025125147835546  0.0037442722201766  0.9990401589425155
  0.9918534920288259  0.0039372867807570  0.4998669009819748
  0.5025491253984293  0.4962576433808261  0.9990200920306080
  0.9690148277371498  0.2500388346733164  0.3853197985008968
  0.4536282574432604  0.2500308213019682  0.0912506495254278
  0.0323771988011175  0.7499722916190046  0.6029103991885635
  0.5386285594233557  0.7499930282770899  0.8891053150094745
  0.7022316067449219  0.5674565443389172  0.2994709782275770
  0.2023419777321994  0.9380301034128861  0.2003473551152546
  0.2883468009627685  0.0433699546267503  0.7053282514465615
  0.8192020028900323  0.4562681089430691  0.8277283645978515
  0.2884076208591514  0.4567863630838740  0.7052136034338048
  0.8191524855660320  0.0438971592691647  0.8277058493629221
  0.7021129001853799  0.9325122427863554  0.2995887805342190
  0.2024196857023986  0.5620016876317869  0.2003345178513176
 
  0.00000000E+00  0.00000000E+00  0.00000000E+00
  0.00000000E+00  0.00000000E+00  0.00000000E+00
  0.00000000E+00  0.00000000E+00  0.00000000E+00
  0.00000000E+00  0.00000000E+00  0.00000000E+00
  0.00000000E+00  0.00000000E+00  0.00000000E+00
  0.00000000E+00  0.00000000E+00  0.00000000E+00
  0.00000000E+00  0.00000000E+00  0.00000000E+00
  0.00000000E+00  0.00000000E+00  0.00000000E+00
  0.00000000E+00  0.00000000E+00  0.00000000E+00
  0.00000000E+00  0.00000000E+00  0.00000000E+00
  0.00000000E+00  0.00000000E+00  0.00000000E+00
  0.00000000E+00  0.00000000E+00  0.00000000E+00
  0.00000000E+00  0.00000000E+00  0.00000000E+00
  0.00000000E+00  0.00000000E+00  0.00000000E+00
  0.00000000E+00  0.00000000E+00  0.00000000E+00
  0.00000000E+00  0.00000000E+00  0.00000000E+00
  0.00000000E+00  0.00000000E+00  0.00000000E+00
  0.00000000E+00  0.00000000E+00  0.00000000E+00
  0.00000000E+00  0.00000000E+00  0.00000000E+00
