Mn8 F32                                 
   1.00000000000000     
     0.0023792572465175   -0.0011988225762336   -5.9460434641917406
    -6.3083596880057424   -6.3128852399499173   -2.9712631190264918
    -6.3132315260155947    6.3160408863632238   -2.9688251049390511
   Mn   F 
     8    32
Direct
  0.1164737341657371  0.7406623294590133  0.5006870982024765
  0.3552987619655070  0.7597802623113949  0.9998700593998748
  0.6143316019148557  0.0000747886476233  0.7402183536438685
  0.3563221307566664  0.4994383533508113  0.7592665458128423
  0.8835405468154107  0.2593745072017200  0.4993076887769519
  0.6446256387854632  0.2402288955577703  0.0001608056508076
  0.3857243679962963  0.9998963347439940  0.2597773046307736
  0.6436659126682116  0.5005573392519267  0.2407369369171377
  0.3038750557546663  0.5926599345375578  0.3562695988815321
  0.2526378868720514  0.9076295223220967  0.1442035329374889
  0.6590958454308620  0.1438477709293124  0.5921364583872943
  0.3969956674319590  0.3556166569196861  0.9072784909356386
  0.6961222657824351  0.4073797274321578  0.6436836333560763
  0.7473696680927873  0.0923985053757974  0.8557595351881773
  0.3409808991788879  0.8560835802060396  0.4078141025075936
  0.6030510666647686  0.6443299907404665  0.0926916572475420
  0.5079512928577117  0.3869630462929763  0.1476329270699068
  0.0429113342577168  0.1126512475115860  0.3520320713479848
  0.6544121645034551  0.3524218258098770  0.3864982591665367
  0.3951940307421893  0.1473922867827966  0.1132983591586836
  0.4919882914770142  0.6130118208631004  0.8523723342342748
  0.9572034183996010  0.8873126469693418  0.6479585098355329
  0.3455407631595335  0.6475857259367572  0.6134760601720188
  0.6048516215925375  0.8526007316642961  0.8866751099372152
  0.9327807989394614  0.8335827043563313  0.3905234974995011
  0.1550905527252979  0.6665303852449682  0.1099329303388927
  0.3209736588283931  0.1099057393292071  0.8336674467595557
  0.2654685828419900  0.3899390829565874  0.6656923658257341
  0.0672129058569482  0.1664839950039223  0.6095197808820245
  0.8447542625232387  0.3335117951532425  0.8901485567572109
  0.6790873538783799  0.8901355681567509  0.1662614698000056
  0.7345078445719295  0.6101118158253982  0.3342562408486884
  0.9262564013433163  0.6342113753474763  0.5928212618135902
  0.1511428854054060  0.8662822259927907  0.9073316984517419
  0.5174168480512549  0.9069636472385696  0.6338035770575914
  0.0601313299002513  0.5923685553155309  0.8658736542896719
  0.0738249662337438  0.3658333174196287  0.4071769657183495
  0.8487332357569173  0.1337319400897172  0.0926962933856785
  0.4825942477994261  0.0929589221007987  0.3662735557147059
  0.9398601580777211  0.4075510996509806  0.1342152714588352
 
  0.00000000E+00  0.00000000E+00  0.00000000E+00
  0.00000000E+00  0.00000000E+00  0.00000000E+00
  0.00000000E+00  0.00000000E+00  0.00000000E+00
  0.00000000E+00  0.00000000E+00  0.00000000E+00
  0.00000000E+00  0.00000000E+00  0.00000000E+00
  0.00000000E+00  0.00000000E+00  0.00000000E+00
  0.00000000E+00  0.00000000E+00  0.00000000E+00
  0.00000000E+00  0.00000000E+00  0.00000000E+00
  0.00000000E+00  0.00000000E+00  0.00000000E+00
  0.00000000E+00  0.00000000E+00  0.00000000E+00
  0.00000000E+00  0.00000000E+00  0.00000000E+00
  0.00000000E+00  0.00000000E+00  0.00000000E+00
  0.00000000E+00  0.00000000E+00  0.00000000E+00
  0.00000000E+00  0.00000000E+00  0.00000000E+00
  0.00000000E+00  0.00000000E+00  0.00000000E+00
  0.00000000E+00  0.00000000E+00  0.00000000E+00
  0.00000000E+00  0.00000000E+00  0.00000000E+00
  0.00000000E+00  0.00000000E+00  0.00000000E+00
  0.00000000E+00  0.00000000E+00  0.00000000E+00
  0.00000000E+00  0.00000000E+00  0.00000000E+00
  0.00000000E+00  0.00000000E+00  0.00000000E+00
  0.00000000E+00  0.00000000E+00  0.00000000E+00
  0.00000000E+00  0.00000000E+00  0.00000000E+00
  0.00000000E+00  0.00000000E+00  0.00000000E+00
  0.00000000E+00  0.00000000E+00  0.00000000E+00
  0.00000000E+00  0.00000000E+00  0.00000000E+00
  0.00000000E+00  0.00000000E+00  0.00000000E+00
  0.00000000E+00  0.00000000E+00  0.00000000E+00
  0.00000000E+00  0.00000000E+00  0.00000000E+00
  0.00000000E+00  0.00000000E+00  0.00000000E+00
  0.00000000E+00  0.00000000E+00  0.00000000E+00
  0.00000000E+00  0.00000000E+00  0.00000000E+00
  0.00000000E+00  0.00000000E+00  0.00000000E+00
  0.00000000E+00  0.00000000E+00  0.00000000E+00
  0.00000000E+00  0.00000000E+00  0.00000000E+00
  0.00000000E+00  0.00000000E+00  0.00000000E+00
  0.00000000E+00  0.00000000E+00  0.00000000E+00
  0.00000000E+00  0.00000000E+00  0.00000000E+00
  0.00000000E+00  0.00000000E+00  0.00000000E+00
  0.00000000E+00  0.00000000E+00  0.00000000E+00
