                                        
   1.00000000000000     
    12.3384620643153049   -0.0001967561428524    0.0150503540005895
     0.0001883493558943    7.3332257603449866    0.0028689321779234
    -0.0132481911246814   -0.0007999174276791   11.9377133272740057
   Na   Mn   F 
    20    12    56
Direct
  0.4201311521210016  0.8306572551620590  0.7587252990245759
  0.5806413634738945  0.1699421640658656  0.2584703715431900
  0.9193473156421987  0.6698066647626177  0.7586793837221393
  0.0798983214550475  0.3305903295387225  0.2588045086209547
  0.2297350429174472  0.7300277948712122  0.9937893095213965
  0.7705977694499211  0.2708753146761751  0.4938702320010933
  0.7297290164166981  0.7701474757102602  0.9938158769330698
  0.2702482565718398  0.2300268255581557  0.4938085402930525
  0.0778552383566549  0.8030734624733000  0.2532750649003503
  0.9223083469350613  0.1971892046678860  0.7532046911155419
  0.5776423771230199  0.6973605273358672  0.2530202841117841
  0.4220934214894001  0.3030355400023410  0.7532575453168775
  0.2344193698715245  0.7164103324117832  0.4999497519638041
  0.7655658886428824  0.2836386105005246  0.9999356978004244
  0.7344521375036379  0.7836221306257656  0.4999496256025751
  0.2655279143645686  0.2163795690434540  0.9999260882604446
  0.0217702688332722  0.0325403959173443  0.0358267555314171
  0.9788688643103782  0.9679377836695551  0.5354244130195056
  0.5211512385501393  0.4679417189076673  0.0354806119811713
  0.4782846563799765  0.5328122258718295  0.5354662824940490
  0.3362630024274225  0.4993993865514952  0.2446144580920446
  0.6618666290287223  0.4993519967688442  0.7445225569162730
  0.8380882353207966  0.9993456749400806  0.2445312801106496
  0.1635895890316732  0.9990882712399838  0.7445946523755822
  0.5007444915553450  0.9959273380609801  0.5016193988991517
  0.4998177275889262  0.0056255220170272  0.0019474415895999
  0.0001425420728012  0.5056878554626536  0.5020585928816317
  0.9998242212980841  0.4944204264069967  0.0019181729227711
  0.3126631432692051  0.9990250540711330  0.2465117048290466
  0.6873026402798388  0.0007895293895643  0.7464808543948891
  0.8126576809812747  0.5007605014466279  0.2464877198843993
  0.1873034003886644  0.4989642581826317  0.7465240991810873
  0.9211643678057726  0.4197953065773632  0.3600268429531468
  0.0785715402029368  0.5802223915276130  0.8597883392057994
  0.4214217277833328  0.0807332262937592  0.3596903960195377
  0.5785745075542152  0.9198570281584608  0.8598206868569136
  0.1940934909831995  0.5830510151698007  0.2488356867115726
  0.8042278525034092  0.4159649508845007  0.7484891309132067
  0.6957928939690632  0.9159722570257998  0.2482991738138693
  0.3057948501366994  0.0829691345143431  0.7486844204894467
  0.6183959237885972  0.1278387637330098  0.4477239784532685
  0.3823188806912228  0.8733617082415179  0.9481636479947966
  0.1175281415615856  0.3732823513175845  0.4481680890730004
  0.8820721116163739  0.6262767322759473  0.9480772376530808
  0.1065621072168739  0.2668870196217554  0.7396269617934905
  0.8943996823601950  0.7321332318903586  0.2399522994215673
  0.6055564664136384  0.2321892376744827  0.7398379531616115
  0.3933657630419916  0.7671577260007538  0.2397882805449427
  0.2965452700728690  0.4593005870496469  0.6297354309368970
  0.7033708947637081  0.5405315676375579  0.1298257167003172
  0.7966450599827439  0.0405920396751327  0.6299023121957887
  0.2033648123511469  0.9591503838406936  0.1297254782340005
  0.0549092836122682  0.7188381345638675  0.4360280402662866
  0.9450994067268326  0.2814541164569206  0.9357829415443746
  0.5551579008443284  0.7826364297080985  0.4355578867430197
  0.4449865334481231  0.2188082898249135  0.9360122933551409
  0.4447392343662031  0.2060049868352110  0.5684380567831795
  0.5556209043478617  0.7952259511807753  0.0688474499615026
  0.9442211201488604  0.2954809900033410  0.5690114820205423
  0.0556113190587908  0.7047441270892918  0.0687035463350298
  0.2782511695322540  0.4270311013871080  0.8581660636617343
  0.7214547877740785  0.5722446692973620  0.3580727348998067
  0.7783106268424049  0.0722823080072814  0.8581616402058430
  0.2216532838434659  0.9272413299328903  0.3581500468034946
  0.2445182616091230  0.7499395741055963  0.7630505928514069
  0.7564085948590105  0.2490354814678639  0.2627402799400969
  0.7435641430125628  0.7490278791040339  0.7630473799390103
  0.2554518417558640  0.2500132124431715  0.2629228896786486
  0.5140348227179317  0.5682104150644705  0.7330541682911544
  0.4844346774736223  0.4317650321662896  0.2330441221117070
  0.0153689163782218  0.9316109568441249  0.7331442407477482
  0.9859222096206040  0.0682375671734476  0.2332610064328406
  0.8913138299246128  0.6541064954936004  0.5629514724364455
  0.1084636360391826  0.3457953171115378  0.0629176630618531
  0.3918644681357932  0.8472169072083062  0.5626070843470217
  0.6086838050254357  0.1538334059383644  0.0628304795754175
  0.3329194947026721  0.4933939750871872  0.0874837660118644
  0.6654679712917115  0.5067099218498825  0.5873446398596442
  0.8346731423404563  0.0065496715465869  0.0873559147525782
  0.1668726844514623  0.9930377179930616  0.5874738663067447
  0.1536110481142714  0.0057707795793078  0.9018463590669015
  0.8473824264160470  0.9939472885533505  0.4018978492138032
  0.6523421773614615  0.4938973707950609  0.9018874228197618
  0.3462446591191650  0.5058918790271392  0.4019190941757387
  0.5936575223425962  0.9080051985428881  0.6390753579735744
  0.4064038849868368  0.0922599537508972  0.1392210031782781
  0.0935711466562807  0.5923621988645280  0.6392729547860583
  0.9065114766686975  0.4077215965817871  0.1392643309008790
 
  0.00000000E+00  0.00000000E+00  0.00000000E+00
  0.00000000E+00  0.00000000E+00  0.00000000E+00
  0.00000000E+00  0.00000000E+00  0.00000000E+00
  0.00000000E+00  0.00000000E+00  0.00000000E+00
  0.00000000E+00  0.00000000E+00  0.00000000E+00
  0.00000000E+00  0.00000000E+00  0.00000000E+00
  0.00000000E+00  0.00000000E+00  0.00000000E+00
  0.00000000E+00  0.00000000E+00  0.00000000E+00
  0.00000000E+00  0.00000000E+00  0.00000000E+00
  0.00000000E+00  0.00000000E+00  0.00000000E+00
  0.00000000E+00  0.00000000E+00  0.00000000E+00
  0.00000000E+00  0.00000000E+00  0.00000000E+00
  0.00000000E+00  0.00000000E+00  0.00000000E+00
  0.00000000E+00  0.00000000E+00  0.00000000E+00
  0.00000000E+00  0.00000000E+00  0.00000000E+00
  0.00000000E+00  0.00000000E+00  0.00000000E+00
  0.00000000E+00  0.00000000E+00  0.00000000E+00
  0.00000000E+00  0.00000000E+00  0.00000000E+00
  0.00000000E+00  0.00000000E+00  0.00000000E+00
  0.00000000E+00  0.00000000E+00  0.00000000E+00
  0.00000000E+00  0.00000000E+00  0.00000000E+00
  0.00000000E+00  0.00000000E+00  0.00000000E+00
  0.00000000E+00  0.00000000E+00  0.00000000E+00
  0.00000000E+00  0.00000000E+00  0.00000000E+00
  0.00000000E+00  0.00000000E+00  0.00000000E+00
  0.00000000E+00  0.00000000E+00  0.00000000E+00
  0.00000000E+00  0.00000000E+00  0.00000000E+00
  0.00000000E+00  0.00000000E+00  0.00000000E+00
  0.00000000E+00  0.00000000E+00  0.00000000E+00
  0.00000000E+00  0.00000000E+00  0.00000000E+00
  0.00000000E+00  0.00000000E+00  0.00000000E+00
  0.00000000E+00  0.00000000E+00  0.00000000E+00
  0.00000000E+00  0.00000000E+00  0.00000000E+00
  0.00000000E+00  0.00000000E+00  0.00000000E+00
  0.00000000E+00  0.00000000E+00  0.00000000E+00
  0.00000000E+00  0.00000000E+00  0.00000000E+00
  0.00000000E+00  0.00000000E+00  0.00000000E+00
  0.00000000E+00  0.00000000E+00  0.00000000E+00
  0.00000000E+00  0.00000000E+00  0.00000000E+00
  0.00000000E+00  0.00000000E+00  0.00000000E+00
  0.00000000E+00  0.00000000E+00  0.00000000E+00
  0.00000000E+00  0.00000000E+00  0.00000000E+00
  0.00000000E+00  0.00000000E+00  0.00000000E+00
  0.00000000E+00  0.00000000E+00  0.00000000E+00
  0.00000000E+00  0.00000000E+00  0.00000000E+00
  0.00000000E+00  0.00000000E+00  0.00000000E+00
  0.00000000E+00  0.00000000E+00  0.00000000E+00
  0.00000000E+00  0.00000000E+00  0.00000000E+00
  0.00000000E+00  0.00000000E+00  0.00000000E+00
  0.00000000E+00  0.00000000E+00  0.00000000E+00
  0.00000000E+00  0.00000000E+00  0.00000000E+00
  0.00000000E+00  0.00000000E+00  0.00000000E+00
  0.00000000E+00  0.00000000E+00  0.00000000E+00
  0.00000000E+00  0.00000000E+00  0.00000000E+00
  0.00000000E+00  0.00000000E+00  0.00000000E+00
  0.00000000E+00  0.00000000E+00  0.00000000E+00
  0.00000000E+00  0.00000000E+00  0.00000000E+00
  0.00000000E+00  0.00000000E+00  0.00000000E+00
  0.00000000E+00  0.00000000E+00  0.00000000E+00
  0.00000000E+00  0.00000000E+00  0.00000000E+00
  0.00000000E+00  0.00000000E+00  0.00000000E+00
  0.00000000E+00  0.00000000E+00  0.00000000E+00
  0.00000000E+00  0.00000000E+00  0.00000000E+00
  0.00000000E+00  0.00000000E+00  0.00000000E+00
  0.00000000E+00  0.00000000E+00  0.00000000E+00
  0.00000000E+00  0.00000000E+00  0.00000000E+00
  0.00000000E+00  0.00000000E+00  0.00000000E+00
  0.00000000E+00  0.00000000E+00  0.00000000E+00
  0.00000000E+00  0.00000000E+00  0.00000000E+00
  0.00000000E+00  0.00000000E+00  0.00000000E+00
  0.00000000E+00  0.00000000E+00  0.00000000E+00
  0.00000000E+00  0.00000000E+00  0.00000000E+00
  0.00000000E+00  0.00000000E+00  0.00000000E+00
  0.00000000E+00  0.00000000E+00  0.00000000E+00
  0.00000000E+00  0.00000000E+00  0.00000000E+00
  0.00000000E+00  0.00000000E+00  0.00000000E+00
  0.00000000E+00  0.00000000E+00  0.00000000E+00
  0.00000000E+00  0.00000000E+00  0.00000000E+00
  0.00000000E+00  0.00000000E+00  0.00000000E+00
  0.00000000E+00  0.00000000E+00  0.00000000E+00
  0.00000000E+00  0.00000000E+00  0.00000000E+00
  0.00000000E+00  0.00000000E+00  0.00000000E+00
  0.00000000E+00  0.00000000E+00  0.00000000E+00
  0.00000000E+00  0.00000000E+00  0.00000000E+00
  0.00000000E+00  0.00000000E+00  0.00000000E+00
  0.00000000E+00  0.00000000E+00  0.00000000E+00
  0.00000000E+00  0.00000000E+00  0.00000000E+00
  0.00000000E+00  0.00000000E+00  0.00000000E+00
