Sodium trifluoromanganate(II)           
   1.00000000000000     
     5.7509717258240416    0.0000000522718972    0.0000002130891154
     0.0000000595581718    7.9528698195824186   -0.0000010117640059
     0.0000002029922183   -0.0000007034397308    5.4976742929361331
   Na   Mn   F 
     4     4    12
Direct
  0.0599639174310127  0.2499999468260654  0.9873745390240458
  0.9400360138957637  0.7499997911736074  0.0126255746965782
  0.4400361053606190  0.7499999933851740  0.4873744474046191
  0.5599640014027827  0.2499999876162562  0.5126256425936404
  0.5000000009900347  0.5000003334690604  0.0000003172169016
  0.9999998933413181  0.4999996142719496  0.5000000102363629
  0.4999996012509484  0.0000004941775629  0.9999995293829826
  0.0000002833331934  0.9999996032152723  0.4999996421830630
  0.4402720639573587  0.2500002407627164  0.1216971028301330
  0.5597278741262102  0.7500001970649848  0.8783031699423915
  0.0597280351357625  0.7499997385784951  0.6216970655264120
  0.9402721296231888  0.2499997619358894  0.3783029852112705
  0.1906245659524473  0.5640690818324501  0.1847219633603530
  0.8093752659338662  0.4359310765193598  0.8152787359906668
  0.3093756124897524  0.4359308653362177  0.6847220222806243
  0.6906245584627513  0.5640689638718399  0.3152786293456842
  0.8093752721178760  0.0640693444130989  0.8152779956451326
  0.1906247809209347  0.9359308521417518  0.1847212371326563
  0.6906245987604223  0.9359309603992045  0.3152778167040680
  0.3093754485137694  0.0640691530090578  0.6847215222924277
 
  0.00000000E+00  0.00000000E+00  0.00000000E+00
  0.00000000E+00  0.00000000E+00  0.00000000E+00
  0.00000000E+00  0.00000000E+00  0.00000000E+00
  0.00000000E+00  0.00000000E+00  0.00000000E+00
  0.00000000E+00  0.00000000E+00  0.00000000E+00
  0.00000000E+00  0.00000000E+00  0.00000000E+00
  0.00000000E+00  0.00000000E+00  0.00000000E+00
  0.00000000E+00  0.00000000E+00  0.00000000E+00
  0.00000000E+00  0.00000000E+00  0.00000000E+00
  0.00000000E+00  0.00000000E+00  0.00000000E+00
  0.00000000E+00  0.00000000E+00  0.00000000E+00
  0.00000000E+00  0.00000000E+00  0.00000000E+00
  0.00000000E+00  0.00000000E+00  0.00000000E+00
  0.00000000E+00  0.00000000E+00  0.00000000E+00
  0.00000000E+00  0.00000000E+00  0.00000000E+00
  0.00000000E+00  0.00000000E+00  0.00000000E+00
  0.00000000E+00  0.00000000E+00  0.00000000E+00
  0.00000000E+00  0.00000000E+00  0.00000000E+00
  0.00000000E+00  0.00000000E+00  0.00000000E+00
  0.00000000E+00  0.00000000E+00  0.00000000E+00
