Sodium iron trifluoride                 
   1.00000000000000     
     5.6059673119003630   -0.0000331436754677    0.0000344646684846
    -0.0000072272124849    7.8747619130183795   -0.0000282067752434
     0.0000513208573856   -0.0000363313857739    5.3540577893985093
   Na   Fe   F 
     4     4    12
Direct
  0.0588873779523230  0.2500001070088366  0.9812683572126585
  0.9410793933580935  0.7499985507190745  0.0186676637000231
  0.4412021725480479  0.7500007170086189  0.4812652232453596
  0.5588638561002004  0.2500001805762087  0.5187573802857082
  0.4999555232403484  0.0000012728952292 -0.0000161830630751
 -0.0000022661466333 -0.0000060030312653  0.5000480623898607
  0.4999712106685785  0.5000080753751991 -0.0000406324391080
 -0.0000074163722567  0.5000018582480986  0.5000336231324412
  0.4437315373058059  0.2499991084935739  0.1189315818098914
  0.5562619786751092  0.7499991868817556  0.8810434960051230
  0.0563234841505745  0.7500007500312855  0.6189571317688872
  0.9437183650844569  0.2499973501383216  0.3810769007866281
  0.2921486576826128  0.0633698552302398  0.6855259733964105
  0.7078472729714963  0.9366109327212438  0.3144904195147419
  0.2078747360659868  0.9366016350302738  0.1854876582616660
  0.7921317718287390  0.0633644576761175  0.8144987018211538
  0.7078530063662487  0.5633786652409971  0.3145005482360221
  0.2921625104498747  0.4366397759212457  0.6855155834510663
  0.7921310279284454  0.4366368922847814  0.8145036363218128
  0.2078658041419485  0.5633966315501562  0.1854848671627322
 
  0.00000000E+00  0.00000000E+00  0.00000000E+00
  0.00000000E+00  0.00000000E+00  0.00000000E+00
  0.00000000E+00  0.00000000E+00  0.00000000E+00
  0.00000000E+00  0.00000000E+00  0.00000000E+00
  0.00000000E+00  0.00000000E+00  0.00000000E+00
  0.00000000E+00  0.00000000E+00  0.00000000E+00
  0.00000000E+00  0.00000000E+00  0.00000000E+00
  0.00000000E+00  0.00000000E+00  0.00000000E+00
  0.00000000E+00  0.00000000E+00  0.00000000E+00
  0.00000000E+00  0.00000000E+00  0.00000000E+00
  0.00000000E+00  0.00000000E+00  0.00000000E+00
  0.00000000E+00  0.00000000E+00  0.00000000E+00
  0.00000000E+00  0.00000000E+00  0.00000000E+00
  0.00000000E+00  0.00000000E+00  0.00000000E+00
  0.00000000E+00  0.00000000E+00  0.00000000E+00
  0.00000000E+00  0.00000000E+00  0.00000000E+00
  0.00000000E+00  0.00000000E+00  0.00000000E+00
  0.00000000E+00  0.00000000E+00  0.00000000E+00
  0.00000000E+00  0.00000000E+00  0.00000000E+00
  0.00000000E+00  0.00000000E+00  0.00000000E+00
