Mn8 F32                                 
   1.00000000000000     
    -0.0002634402997388    0.0000424891547668   -5.9789520310713931
    -6.3298799411289348   -6.3274298929433774   -2.9897114445809674
    -6.3291966593232045    6.3268159300191549   -2.9897997870200381
   Mn   F 
     8    32
Direct
  0.1158555309581857  0.7406691254198776  0.4998670899045408
  0.3561232184698753  0.7592935256188795  0.9999204778214548
  0.6157259902242842  0.9999765565636238  0.7403694071891564
  0.3561128535163718  0.4999588697630202  0.7594830735264182
  0.8841439461384226  0.2593303521857706  0.5001320424594056
  0.6438773709898626  0.2407065229882690  0.0000757654243202
  0.3842762173822862  0.0000222305485735  0.2596308884808565
  0.6438834281394819  0.5000424594043125  0.2405175269207760
  0.3038639785315169  0.5929415350856004  0.3560168334482512
  0.2529673104399848  0.9069653141385317  0.1439495579326007
  0.6593627425130535  0.1438362686184007  0.5922042478431564
  0.3958685977283665  0.3561449571444939  0.9076640879365243
  0.6961282837200287  0.4070616777325853  0.6439839860540104
  0.7470336639619504  0.0930381886713718  0.8560500107736644
  0.3406439484376378  0.8561589748739564  0.4077907741932805
  0.6041338602551249  0.6438537486545570  0.0923349051100857
  0.5081582096132067  0.3870519997896764  0.1473880693860110
  0.0423553314256324  0.1129797118161804  0.3527622021500960
  0.6556090630807390  0.3524247669865233  0.3866032045160424
  0.3948039143812068  0.1475842707997614  0.1134796305973822
  0.4918394692320618  0.6129494164258915  0.8526128798487846
  0.9576470424450960  0.8870196568335160  0.6472412217790975
  0.3443866204348396  0.6475772235329771  0.6133983832434140
  0.6051969844728404  0.8524170924329653  0.8865227443799739
  0.9324776446826917  0.8337999165681325  0.3901757253134335
  0.1562256619225479  0.6661377008192559  0.1096451602389763
  0.3228364064568936  0.1097050606772640  0.8338259317953387
  0.2665974463383378  0.3900982360203287  0.6660807500201287
  0.0675211140149585  0.1662027104268162  0.6098254746599636
  0.8437742353252062  0.3338615287169731  0.8903575613189361
  0.6771693919479560  0.8902952475824080  0.1661684082173167
  0.7334005122538798  0.6099047262939976  0.3339167675022949
  0.9264446291117281  0.6342699328633330  0.5925172140425516
  0.1528784147628812  0.8657162533486158  0.9073875703438929
  0.5180352645092796  0.9077742252981693  0.6342252634793866
  0.0598759304568901  0.5921371871526304  0.8657498724558579
  0.0735525175968732  0.3657315932403122  0.4074842083751662
  0.8471271762658574  0.1342801161382710  0.0926103126024955
  0.4819668599686437  0.0922193917432352  0.3657783992384296
  0.9401192178933329  0.4078617270809275  0.1342523694765276
 
  0.00000000E+00  0.00000000E+00  0.00000000E+00
  0.00000000E+00  0.00000000E+00  0.00000000E+00
  0.00000000E+00  0.00000000E+00  0.00000000E+00
  0.00000000E+00  0.00000000E+00  0.00000000E+00
  0.00000000E+00  0.00000000E+00  0.00000000E+00
  0.00000000E+00  0.00000000E+00  0.00000000E+00
  0.00000000E+00  0.00000000E+00  0.00000000E+00
  0.00000000E+00  0.00000000E+00  0.00000000E+00
  0.00000000E+00  0.00000000E+00  0.00000000E+00
  0.00000000E+00  0.00000000E+00  0.00000000E+00
  0.00000000E+00  0.00000000E+00  0.00000000E+00
  0.00000000E+00  0.00000000E+00  0.00000000E+00
  0.00000000E+00  0.00000000E+00  0.00000000E+00
  0.00000000E+00  0.00000000E+00  0.00000000E+00
  0.00000000E+00  0.00000000E+00  0.00000000E+00
  0.00000000E+00  0.00000000E+00  0.00000000E+00
  0.00000000E+00  0.00000000E+00  0.00000000E+00
  0.00000000E+00  0.00000000E+00  0.00000000E+00
  0.00000000E+00  0.00000000E+00  0.00000000E+00
  0.00000000E+00  0.00000000E+00  0.00000000E+00
  0.00000000E+00  0.00000000E+00  0.00000000E+00
  0.00000000E+00  0.00000000E+00  0.00000000E+00
  0.00000000E+00  0.00000000E+00  0.00000000E+00
  0.00000000E+00  0.00000000E+00  0.00000000E+00
  0.00000000E+00  0.00000000E+00  0.00000000E+00
  0.00000000E+00  0.00000000E+00  0.00000000E+00
  0.00000000E+00  0.00000000E+00  0.00000000E+00
  0.00000000E+00  0.00000000E+00  0.00000000E+00
  0.00000000E+00  0.00000000E+00  0.00000000E+00
  0.00000000E+00  0.00000000E+00  0.00000000E+00
  0.00000000E+00  0.00000000E+00  0.00000000E+00
  0.00000000E+00  0.00000000E+00  0.00000000E+00
  0.00000000E+00  0.00000000E+00  0.00000000E+00
  0.00000000E+00  0.00000000E+00  0.00000000E+00
  0.00000000E+00  0.00000000E+00  0.00000000E+00
  0.00000000E+00  0.00000000E+00  0.00000000E+00
  0.00000000E+00  0.00000000E+00  0.00000000E+00
  0.00000000E+00  0.00000000E+00  0.00000000E+00
  0.00000000E+00  0.00000000E+00  0.00000000E+00
  0.00000000E+00  0.00000000E+00  0.00000000E+00
