Sodium cobalt fluoride                  
   1.00000000000000     
     5.2073888298725821   -0.0001086042301152    0.0000001600382204
    -0.0001636989994335    7.2548482442659061    0.0007208668761721
     0.0000009077497172    0.0004781605528183    5.0368056401208099
   Co   F 
     4    12
Direct
  0.4999431977508125  0.5000337309869766  0.0000532696981304
 -0.0000583511542010  0.5000405962748775  0.4999348062697850
  0.4999262980546798 -0.0000395637155263  0.0000685263162923
 -0.0000702593233264 -0.0000329463685046  0.4999415435666522
  0.4704023854987606  0.2498622472566532  0.1159036124429309
  0.5296051687376746  0.7501345356547856  0.8841214729751745
  0.0295988110704018  0.7499112527875161  0.6158910191350384
  0.9704106810348118  0.2500935378995439  0.3840845946193313
  0.2025227498285301  0.5554809999629104  0.1849740995828457
  0.7975470252077286  0.4445119057015012  0.8149771627257704
  0.2976620301532867  0.4445855011416842  0.6851842079648217
  0.7023943556234036  0.5554082747762711  0.3148506652602995
  0.7977266473328678  0.0554134458318721  0.8147937040420954
  0.2023205498309824  0.9445888544804738  0.1851736401993764
  0.7024501111109269  0.9445240407096580  0.3150009641813384
  0.2976185692426506  0.0554835866192857  0.6850467030201171
 
  0.00000000E+00  0.00000000E+00  0.00000000E+00
  0.00000000E+00  0.00000000E+00  0.00000000E+00
  0.00000000E+00  0.00000000E+00  0.00000000E+00
  0.00000000E+00  0.00000000E+00  0.00000000E+00
  0.00000000E+00  0.00000000E+00  0.00000000E+00
  0.00000000E+00  0.00000000E+00  0.00000000E+00
  0.00000000E+00  0.00000000E+00  0.00000000E+00
  0.00000000E+00  0.00000000E+00  0.00000000E+00
  0.00000000E+00  0.00000000E+00  0.00000000E+00
  0.00000000E+00  0.00000000E+00  0.00000000E+00
  0.00000000E+00  0.00000000E+00  0.00000000E+00
  0.00000000E+00  0.00000000E+00  0.00000000E+00
  0.00000000E+00  0.00000000E+00  0.00000000E+00
  0.00000000E+00  0.00000000E+00  0.00000000E+00
  0.00000000E+00  0.00000000E+00  0.00000000E+00
  0.00000000E+00  0.00000000E+00  0.00000000E+00
