Fe2 F6                                  
   1.00000000000000     
     4.5386401328331152   -0.0000238030469356    2.8426196373925676
     1.5737506357417479    4.2570604240454761    2.8426195577359832
    -0.0000355045641965   -0.0000247671238250    5.3553411865752949
   Fe   F 
     2     6
Direct
  0.4999995854893725  0.5000007840128975  0.4999996424373109
  0.0000006031443678  0.0000000428041526 -0.0000005727706284
  0.6606706434385774  0.2499998312122391  0.8393298286364629
  0.2499997542888920  0.8393295703227291  0.6606706239759134
  0.8393295769867661  0.6606702350684373  0.2500000105619490
  0.3393296254543788  0.7499997501435626  0.1606705947731182
  0.7499999604097444  0.1606704890557388  0.3393297287458866
  0.1606702507879012  0.3393292973802430  0.7500001436399875
 
  0.00000000E+00  0.00000000E+00  0.00000000E+00
  0.00000000E+00  0.00000000E+00  0.00000000E+00
  0.00000000E+00  0.00000000E+00  0.00000000E+00
  0.00000000E+00  0.00000000E+00  0.00000000E+00
  0.00000000E+00  0.00000000E+00  0.00000000E+00
  0.00000000E+00  0.00000000E+00  0.00000000E+00
  0.00000000E+00  0.00000000E+00  0.00000000E+00
  0.00000000E+00  0.00000000E+00  0.00000000E+00
