Cu2 F4                                  
   1.00000000000000     
     3.2690114273899629   -0.0000021931986551    0.3901135185192493
    -0.0000030210171309    4.5340868623253447   -0.0000003023896828
     0.0105581056726306   -0.0000003090328392    4.5867657542177120
   Cu   F 
     2     4
Direct
  0.5000020332498941  0.4999989152639887  0.5000000250925875
  0.0000020261458439  0.0000010722361419  0.0000000176238698
  0.5416475396278120  0.7958039867501296  0.2045528949469548
  0.0416477374238935  0.7041960794699810  0.7045530371350263
  0.4583504129214844  0.2041952313877774  0.7954471005940882
  0.9583502506310722  0.2958047148919813  0.2954469246074735
 
  0.00000000E+00  0.00000000E+00  0.00000000E+00
  0.00000000E+00  0.00000000E+00  0.00000000E+00
  0.00000000E+00  0.00000000E+00  0.00000000E+00
  0.00000000E+00  0.00000000E+00  0.00000000E+00
  0.00000000E+00  0.00000000E+00  0.00000000E+00
  0.00000000E+00  0.00000000E+00  0.00000000E+00
