Pentasodium triiron(III) fluoride - gamm
   1.00000000000000     
     7.6164757428369869    0.0000229162295030   -0.0000048633510937
     0.0000229008428123    7.6162358811778477   -0.0004623584345655
    -0.0000065344134323   -0.0006508627599359    9.7666887193281759
   Fe   Na   F 
     6    10    28
Direct
  0.0000340473576717  0.5000538420155625  0.4997741322777149
 -0.0000092409045273  0.4999621846772923 -0.0001325774406467
  0.5000337906676452  0.9999449588201351  0.0002205290570464
  0.4999869461596969  0.0000374198238849  0.5001326695161421
  0.0000855375479001 -0.0001201223354081 -0.0000005442430289
  0.5000851128849387  0.5001174406154942  0.5000060596324688
  0.2643155700328826  0.7314746011616708  0.2610611449564193
  0.7356720240602084  0.2684920036110957  0.2611206591798534
  0.7683846242795183  0.7642816206452514  0.7610141952570646
  0.2314665368651440  0.2356645756342478  0.7611036144313787
  0.2356695063906456  0.2315110934569653  0.2388817596949481
  0.7643250031103667  0.7685276530871663  0.2389393985405855
  0.7314722780966815  0.2643423859547550  0.7388963400281292
  0.2683817943414542  0.7357176149733773  0.7389858394990516
  0.0000460514363221 -0.0000267919483297  0.5000427566564050
  0.5000474199546240  0.5000228511440338 -0.0000420872778696
 -0.0002135900823342  0.3121624384944475  0.3668324589696641
  0.0001608187738040  0.6879110540894847  0.3668919294160780
  0.1878175752507414  0.4997598062255789  0.8669612975402532
  0.8121411693110409  0.5002029377317408  0.8669513380532049
  0.5001611439583846  0.8120827415594409  0.1331030840316910
  0.4997910719139464  0.1878349142055557  0.1331612472411065
  0.3121464403143637 -0.0001996704997218  0.6330447209478152
  0.6878159649798418  0.0002393075891688  0.6330425442033950
  0.3117971671204881  0.9966113151796350  0.3678604078150967
  0.6881000581107714  0.0034967992352789  0.3678138140950649
  0.5033126501149638  0.8116394876502836  0.8680178263643202
  0.4965784994688122  0.1879219156539141  0.8678653809723946
  0.1881196150752743  0.4965041279530791  0.1321791726265752
  0.8118062440266108  0.5033943387641404  0.1321420001606813
  0.9965748371391989  0.3120793948028719  0.6321254836053377
  0.0033105479454489  0.6883605384498427  0.6319738398639679
  0.2509009567046384  0.5030899458885910  0.4984020463205490
  0.7492708420756511  0.4973131331164077  0.4983836215754333
  0.9971473511845330  0.7506714665108568  0.9984410162734126
  0.0028182641714822  0.2490579270604465  0.9984307526828291
  0.2492728583098456  0.0026901753046759  0.0016217225504641
  0.7509007926470259  0.9969055096664108  0.0016066475389162
  0.5028197142689392  0.2509400392736231  0.5015772633900553
  0.4971347702549266  0.7493243097939721  0.5015676169400999
  0.0000859050149056 -0.0000121611347492  0.1935980809039633
  0.5000751829494045  0.5000366483264769  0.6935948233914417
  0.5000879397074497  0.5000072781100253  0.3063954986700000
  0.0000682070086613  0.9999709496613342  0.8064104590905157
 
  0.00000000E+00  0.00000000E+00  0.00000000E+00
  0.00000000E+00  0.00000000E+00  0.00000000E+00
  0.00000000E+00  0.00000000E+00  0.00000000E+00
  0.00000000E+00  0.00000000E+00  0.00000000E+00
  0.00000000E+00  0.00000000E+00  0.00000000E+00
  0.00000000E+00  0.00000000E+00  0.00000000E+00
  0.00000000E+00  0.00000000E+00  0.00000000E+00
  0.00000000E+00  0.00000000E+00  0.00000000E+00
  0.00000000E+00  0.00000000E+00  0.00000000E+00
  0.00000000E+00  0.00000000E+00  0.00000000E+00
  0.00000000E+00  0.00000000E+00  0.00000000E+00
  0.00000000E+00  0.00000000E+00  0.00000000E+00
  0.00000000E+00  0.00000000E+00  0.00000000E+00
  0.00000000E+00  0.00000000E+00  0.00000000E+00
  0.00000000E+00  0.00000000E+00  0.00000000E+00
  0.00000000E+00  0.00000000E+00  0.00000000E+00
  0.00000000E+00  0.00000000E+00  0.00000000E+00
  0.00000000E+00  0.00000000E+00  0.00000000E+00
  0.00000000E+00  0.00000000E+00  0.00000000E+00
  0.00000000E+00  0.00000000E+00  0.00000000E+00
  0.00000000E+00  0.00000000E+00  0.00000000E+00
  0.00000000E+00  0.00000000E+00  0.00000000E+00
  0.00000000E+00  0.00000000E+00  0.00000000E+00
  0.00000000E+00  0.00000000E+00  0.00000000E+00
  0.00000000E+00  0.00000000E+00  0.00000000E+00
  0.00000000E+00  0.00000000E+00  0.00000000E+00
  0.00000000E+00  0.00000000E+00  0.00000000E+00
  0.00000000E+00  0.00000000E+00  0.00000000E+00
  0.00000000E+00  0.00000000E+00  0.00000000E+00
  0.00000000E+00  0.00000000E+00  0.00000000E+00
  0.00000000E+00  0.00000000E+00  0.00000000E+00
  0.00000000E+00  0.00000000E+00  0.00000000E+00
  0.00000000E+00  0.00000000E+00  0.00000000E+00
  0.00000000E+00  0.00000000E+00  0.00000000E+00
  0.00000000E+00  0.00000000E+00  0.00000000E+00
  0.00000000E+00  0.00000000E+00  0.00000000E+00
  0.00000000E+00  0.00000000E+00  0.00000000E+00
  0.00000000E+00  0.00000000E+00  0.00000000E+00
  0.00000000E+00  0.00000000E+00  0.00000000E+00
  0.00000000E+00  0.00000000E+00  0.00000000E+00
  0.00000000E+00  0.00000000E+00  0.00000000E+00
  0.00000000E+00  0.00000000E+00  0.00000000E+00
  0.00000000E+00  0.00000000E+00  0.00000000E+00
  0.00000000E+00  0.00000000E+00  0.00000000E+00
