Trisodium hexafluoroferrate(III)        
   1.00000000000000     
     5.4110216651379597   -0.0000127822185216   -0.0096024794585184
     0.0000088351866215    5.6914075661616588    0.0000017384458830
    -0.0713482598692444    0.0000054015959180    7.8274532716730718
   Na   Fe   F 
     6     2    12
Direct
  0.7489273857946074  0.9866908946066202  0.2504629820793146
  0.2510738830740073  0.4866851398625109  0.7495354034730372
  0.7296750889305483  0.5511794224185212  0.0057942858530469
  0.2703253217421067  0.0511772034551473  0.9942059457431022
  0.7675580988481828  0.4241547244294770  0.4950143040505028
  0.2324409184948220  0.9241547483085238  0.5049854859337628
  0.2472638883776940  0.4881181657413324  0.2495088068949319
  0.7527367656914091  0.9881199696182128  0.7504906282627331
  0.3715809965214980  0.5462771680383259  0.4784837680314500
  0.6284186324391314  0.0462777899217137  0.5215163308123543
  0.5382438400091752  0.3095143760675646  0.1950165199045657
  0.4617547548200351  0.8095123423927341  0.8049855650015605
  0.0795779865254002  0.2059453152245888  0.3242329460903196
  0.9204227321216252  0.7059475095463975  0.6757679046870170
  0.1258556281259605  0.4301320158316154  0.0201863196787138
  0.8741457760032737  0.9301335546088099  0.9798144170266655
  0.9567919656368973  0.6655126152248493  0.3046882722600970
  0.0432048829053907  0.1655128051583276  0.6953102824812375
  0.4165585659618567  0.7704775116495840  0.1760111656592784
  0.5834428509763792  0.2704769198951171  0.8239886710763420
 
  0.00000000E+00  0.00000000E+00  0.00000000E+00
  0.00000000E+00  0.00000000E+00  0.00000000E+00
  0.00000000E+00  0.00000000E+00  0.00000000E+00
  0.00000000E+00  0.00000000E+00  0.00000000E+00
  0.00000000E+00  0.00000000E+00  0.00000000E+00
  0.00000000E+00  0.00000000E+00  0.00000000E+00
  0.00000000E+00  0.00000000E+00  0.00000000E+00
  0.00000000E+00  0.00000000E+00  0.00000000E+00
  0.00000000E+00  0.00000000E+00  0.00000000E+00
  0.00000000E+00  0.00000000E+00  0.00000000E+00
  0.00000000E+00  0.00000000E+00  0.00000000E+00
  0.00000000E+00  0.00000000E+00  0.00000000E+00
  0.00000000E+00  0.00000000E+00  0.00000000E+00
  0.00000000E+00  0.00000000E+00  0.00000000E+00
  0.00000000E+00  0.00000000E+00  0.00000000E+00
  0.00000000E+00  0.00000000E+00  0.00000000E+00
  0.00000000E+00  0.00000000E+00  0.00000000E+00
  0.00000000E+00  0.00000000E+00  0.00000000E+00
  0.00000000E+00  0.00000000E+00  0.00000000E+00
  0.00000000E+00  0.00000000E+00  0.00000000E+00
