Cr2 F6                                  
   1.00000000000000     
     4.4087982421192686   -0.0114386906571568    2.8842063688769315
     1.5554636731051568    4.1251399790138477    2.8841119592190347
    -0.0156932123710838   -0.0112936287128636    5.2668036259685245
   Cr   F 
     2     6
Direct
  0.5000235021127580  0.5000084838025709  0.4999860451073714
  0.0000149790845952  0.0000285828370208 -0.0000261378778304
  0.6308585898271621  0.2506209028126666  0.8690706069872539
  0.2495484972616486  0.8692230254684586  0.6307631893337589
  0.8685974116541784  0.6313052990530121  0.2500211272894009
  0.3691158676745318  0.7494636555326737  0.1308715899029778
  0.7505297510724782  0.1307634656307634  0.3691868539908629
  0.1313114013126477  0.3685865848628340  0.7501267252662043
 
  0.00000000E+00  0.00000000E+00  0.00000000E+00
  0.00000000E+00  0.00000000E+00  0.00000000E+00
  0.00000000E+00  0.00000000E+00  0.00000000E+00
  0.00000000E+00  0.00000000E+00  0.00000000E+00
  0.00000000E+00  0.00000000E+00  0.00000000E+00
  0.00000000E+00  0.00000000E+00  0.00000000E+00
  0.00000000E+00  0.00000000E+00  0.00000000E+00
  0.00000000E+00  0.00000000E+00  0.00000000E+00
