Nickel trifluoride - R                  
   1.00000000000000     
     5.1063723991491008    0.0039832726561125    0.0028583458164277
     2.8887129181837348    4.2107914837068972    0.0026447671875396
     2.8885930515085683    1.5229763851234577    3.9258511285261815
   Ni   F 
     2     6
Direct
  0.0000002917389318  0.0000137276345561 -0.0000145361894359
  0.4999950829042604  0.5000068761364549  0.5000025594706915
  0.8990004855547602  0.6197494615241165  0.2386539058526524
  0.1009973862393082  0.3802409242587144  0.7613505124629061
  0.2386515425171885  0.8989980838430641  0.6197588893462137
  0.7613485706152266  0.1009987124388292  0.3802448385123774
  0.6197540458807178  0.2386482047882720  0.8990069222525587
  0.3802525945496062  0.7613440093759858  0.1009969082920432
 
  0.00000000E+00  0.00000000E+00  0.00000000E+00
  0.00000000E+00  0.00000000E+00  0.00000000E+00
  0.00000000E+00  0.00000000E+00  0.00000000E+00
  0.00000000E+00  0.00000000E+00  0.00000000E+00
  0.00000000E+00  0.00000000E+00  0.00000000E+00
  0.00000000E+00  0.00000000E+00  0.00000000E+00
  0.00000000E+00  0.00000000E+00  0.00000000E+00
  0.00000000E+00  0.00000000E+00  0.00000000E+00
