Mn2 F4                                  
   1.00000000000000     
     4.8868925959641665   -0.0000012606119452    0.0000000274449708
    -0.0000012611015638    4.8868925890403956    0.0000000502997653
     0.0000000179546613    0.0000000342659020    3.3208615055277018
   Mn   F 
     2     4
Direct
  0.4999999918222495  0.5000000058959906  0.4999999916935703
  0.0000000016506419 -0.0000000078072173  0.0000000018577721
  0.1952151677466753  0.8047848314957919  0.5000000049743413
  0.8047848373420384  0.1952151585228168  0.4999999970587043
  0.3047846179714074  0.3047846166915871 -0.0000000070825392
  0.6952153834669874  0.6952153952010309  0.0000000114981513
 
  0.00000000E+00  0.00000000E+00  0.00000000E+00
  0.00000000E+00  0.00000000E+00  0.00000000E+00
  0.00000000E+00  0.00000000E+00  0.00000000E+00
  0.00000000E+00  0.00000000E+00  0.00000000E+00
  0.00000000E+00  0.00000000E+00  0.00000000E+00
  0.00000000E+00  0.00000000E+00  0.00000000E+00
