Mn2 F6                                  
   1.00000000000000     
     9.9042180829076401   -0.0024466870711526   -0.0010562378429203
     2.4750181217189895    4.4513376360460484   -0.0006429160318493
     2.4753023722588710    1.2630759157113054    4.4882477007467596
   Mn   F 
     4    12
Direct
  0.2499949483875810  0.5000693918911026  0.4999891494178001
  0.7499950305098366  0.5000693888693917  0.4999889998221150
  0.0000372204693306  0.9999713759161679  0.9999886469220627
  0.5000372283805490  0.9999713885479835  0.9999886435649330
  0.1888169188964497  0.7500026059524529  0.7499769948010737
  0.6888169406589952  0.7500025047641401  0.7499769212735004
  0.3111261430532437  0.2500020430274503  0.2500358481760259
  0.8111261774527279  0.2500019459249430  0.2500357449557313
  0.3815878716973344  0.1147391849307269  0.7624423648694005
  0.8815878843141505  0.1147391759360232  0.7624423341799869
  0.0702253429619688  0.3851171724657760  0.7375392176829791
  0.5702254107918492  0.3851171336143366  0.7375391287095283
  0.1183813601775512  0.8851775921826501  0.2378082367384522
  0.6183813766423967  0.8851775818453262  0.2378082239102710
  0.4298300314353227  0.6149207346147563  0.2622197766184797
  0.9298300541707079  0.6149207495167772  0.2622197683576601
 
  0.00000000E+00  0.00000000E+00  0.00000000E+00
  0.00000000E+00  0.00000000E+00  0.00000000E+00
  0.00000000E+00  0.00000000E+00  0.00000000E+00
  0.00000000E+00  0.00000000E+00  0.00000000E+00
  0.00000000E+00  0.00000000E+00  0.00000000E+00
  0.00000000E+00  0.00000000E+00  0.00000000E+00
  0.00000000E+00  0.00000000E+00  0.00000000E+00
  0.00000000E+00  0.00000000E+00  0.00000000E+00
  0.00000000E+00  0.00000000E+00  0.00000000E+00
  0.00000000E+00  0.00000000E+00  0.00000000E+00
  0.00000000E+00  0.00000000E+00  0.00000000E+00
  0.00000000E+00  0.00000000E+00  0.00000000E+00
  0.00000000E+00  0.00000000E+00  0.00000000E+00
  0.00000000E+00  0.00000000E+00  0.00000000E+00
  0.00000000E+00  0.00000000E+00  0.00000000E+00
  0.00000000E+00  0.00000000E+00  0.00000000E+00
