Sodium trifluoroniccolate               
   1.00000000000000     
     5.4978837259634137   -0.0000030203603346   -0.0000037895593076
    -0.0000034966512469    7.5772546896059998    0.0000190608764350
    -0.0000039394859531    0.0000126201614895    5.2922641664457455
   Na   Ni   F 
     4     4    12
Direct
  0.0617806188758318  0.2500000184760924  0.9815478487686884
  0.9378776617440432  0.7499993432046697  0.0180988004431674
  0.4378784528435500  0.7500004082732649  0.4819045069178047
  0.5617818675188625  0.2499998335272453  0.5184547488969417
  0.4997796356544240  0.4998652277318589  0.0004810660502704
  0.9997782719279469  0.4998749406413710  0.4995205954044475
  0.4997763754770069  0.0001254273860570  0.0004791922604408
  0.9997766573358096  0.0001325693112880  0.4995181938314769
  0.4612118955167880  0.2499967588827028  0.1108021487907700
  0.5398734252568439  0.7499971534829876  0.8895342896384761
  0.0398730236693131  0.7500029909513850  0.6104693165128434
  0.9612114280298241  0.2500031698260435  0.3892003365901389
  0.1985982086415100  0.5572824281338572  0.1942302388013414
  0.8012553285734236  0.4433345889754055  0.8061247146873625
  0.3012553948060484  0.4433337128933389  0.6938672103615602
  0.6985946936872754  0.5572828517141660  0.3057707205725314
  0.8012516019212707  0.0566665404353278  0.8061248201687441
  0.1985943328352754  0.9427176541958883  0.1942313933151712
  0.6985952184271286  0.9427174425513977  0.3057714848272454
  0.3012558952578162  0.0566669394056455  0.6938683721605953
 
  0.00000000E+00  0.00000000E+00  0.00000000E+00
  0.00000000E+00  0.00000000E+00  0.00000000E+00
  0.00000000E+00  0.00000000E+00  0.00000000E+00
  0.00000000E+00  0.00000000E+00  0.00000000E+00
  0.00000000E+00  0.00000000E+00  0.00000000E+00
  0.00000000E+00  0.00000000E+00  0.00000000E+00
  0.00000000E+00  0.00000000E+00  0.00000000E+00
  0.00000000E+00  0.00000000E+00  0.00000000E+00
  0.00000000E+00  0.00000000E+00  0.00000000E+00
  0.00000000E+00  0.00000000E+00  0.00000000E+00
  0.00000000E+00  0.00000000E+00  0.00000000E+00
  0.00000000E+00  0.00000000E+00  0.00000000E+00
  0.00000000E+00  0.00000000E+00  0.00000000E+00
  0.00000000E+00  0.00000000E+00  0.00000000E+00
  0.00000000E+00  0.00000000E+00  0.00000000E+00
  0.00000000E+00  0.00000000E+00  0.00000000E+00
  0.00000000E+00  0.00000000E+00  0.00000000E+00
  0.00000000E+00  0.00000000E+00  0.00000000E+00
  0.00000000E+00  0.00000000E+00  0.00000000E+00
  0.00000000E+00  0.00000000E+00  0.00000000E+00
