Cu1 F1                                  
   1.00000000000000     
     6.7122540796957999   -0.0002081541571071   -0.0001423187927882
     3.3555970474241357    5.8132726568734840   -0.0001451817547466
     3.3556013911909552    1.9374788032082120    5.4809044954679154
   Cu   F 
     8     8
Direct
  0.0000102814513768  0.0000105635619630  0.0000048356507879
  0.0000081609315432  0.0000088466713536  0.5000110190043143
  0.0000112286225332  0.5000084134379569  0.0000056910358759
  0.0000089344315586  0.5000062051636583  0.5000113566299971
  0.5000087874002778  0.0000112960644737  0.0000056798499991
  0.5000065601231167  0.0000091372494566  0.5000111217637954
  0.5000095615316027  0.5000087789219884  0.0000062472221338
  0.5000076749616662  0.5000069088132456  0.5000123690309343
  0.3749860337477337  0.3749849329666269  0.3749957562070458
  0.3749895411372781  0.3749881719406358  0.8749951515566711
  0.3749887069912965  0.8749987492586745  0.3749924133905861
  0.3749916182237806  0.8749959365669275  0.8749853459295100
  0.8749979181223227  0.3749882727580007  0.3749928073250996
  0.8749950680168815  0.3749909298908701  0.8749863850759803
  0.8749883290481676  0.8749897096413676  0.3749949840317355
  0.8749916352588746  0.8749931910927973  0.8749888402955414
 
  0.00000000E+00  0.00000000E+00  0.00000000E+00
  0.00000000E+00  0.00000000E+00  0.00000000E+00
  0.00000000E+00  0.00000000E+00  0.00000000E+00
  0.00000000E+00  0.00000000E+00  0.00000000E+00
  0.00000000E+00  0.00000000E+00  0.00000000E+00
  0.00000000E+00  0.00000000E+00  0.00000000E+00
  0.00000000E+00  0.00000000E+00  0.00000000E+00
  0.00000000E+00  0.00000000E+00  0.00000000E+00
  0.00000000E+00  0.00000000E+00  0.00000000E+00
  0.00000000E+00  0.00000000E+00  0.00000000E+00
  0.00000000E+00  0.00000000E+00  0.00000000E+00
  0.00000000E+00  0.00000000E+00  0.00000000E+00
  0.00000000E+00  0.00000000E+00  0.00000000E+00
  0.00000000E+00  0.00000000E+00  0.00000000E+00
  0.00000000E+00  0.00000000E+00  0.00000000E+00
  0.00000000E+00  0.00000000E+00  0.00000000E+00
