Cu1 F1                                  
1.0
        6.6855654716         0.0000000000         0.0000000000
        3.3424345111         5.7900667167         0.0000000000
        3.3424348053         1.9298832236         5.4589750511
   Cu    F
    8    8
Direct
     0.000002096         0.000002097         0.000002087
     0.000002096         0.000002097         0.500002086
     0.000002096         0.500002086         0.000002087
     0.000002096         0.500002086         0.500002086
     0.500002086         0.000002097         0.000002087
     0.500002086         0.000002097         0.500002086
     0.500002086         0.500002086         0.000002087
     0.500002086         0.500002086         0.500002086
     0.374997914         0.374997914         0.374997914
     0.374997914         0.374997914         0.874997914
     0.374997914         0.874997914         0.374997914
     0.374997914         0.874997914         0.874997914
     0.874997914         0.374997914         0.374997914
     0.874997914         0.374997914         0.874997914
     0.874997914         0.874997914         0.374997914
     0.874997914         0.874997914         0.874997914
