Sodium trifluoromanganate(II)           
   1.00000000000000     
     5.3691372311232008   -0.0004457586231924    0.0000698160078229
    -0.0006250852805987    7.5278332849085370    0.0104078605656369
     0.0001104712051150    0.0072204049682491    5.2790248399324096
   Mn   F 
     4    12
Direct
  0.4999971253645835  0.4999708905604286  0.0000007473786378
  0.0000054234297739  0.4999797993489851  0.5000234865335991
  0.5000208786719204  0.0000189820384884  0.9999839563096069
  0.0000151994214672  0.0000279977909321  0.5000083028814211
  0.4897880011731275  0.2510713298352101  0.0681597318163687
  0.5102129107766259  0.7489310563856195  0.9318472337470841
  0.0101072837049119  0.7513426850561695  0.5683683310219376
  0.9898899040432826  0.2486476543904983  0.4316310038922201
  0.2159940682079991  0.5340900363477116  0.2163152019351599
  0.7839965998498855  0.4658815731513493  0.7837077400854634
  0.2816200795617453  0.4661359630231024  0.7138366196782678
  0.7183610575119155  0.5338577001999091  0.2861721750039468
  0.7811796231730508  0.0339634768556783  0.7864919372466497
  0.2188070457823180  0.9660609521176778  0.2134959209797159
  0.7163670504971622  0.9659291744042362  0.2840934382748072
  0.2836377788302404  0.0340907284940108  0.7158641282151210
 
  0.00000000E+00  0.00000000E+00  0.00000000E+00
  0.00000000E+00  0.00000000E+00  0.00000000E+00
  0.00000000E+00  0.00000000E+00  0.00000000E+00
  0.00000000E+00  0.00000000E+00  0.00000000E+00
  0.00000000E+00  0.00000000E+00  0.00000000E+00
  0.00000000E+00  0.00000000E+00  0.00000000E+00
  0.00000000E+00  0.00000000E+00  0.00000000E+00
  0.00000000E+00  0.00000000E+00  0.00000000E+00
  0.00000000E+00  0.00000000E+00  0.00000000E+00
  0.00000000E+00  0.00000000E+00  0.00000000E+00
  0.00000000E+00  0.00000000E+00  0.00000000E+00
  0.00000000E+00  0.00000000E+00  0.00000000E+00
  0.00000000E+00  0.00000000E+00  0.00000000E+00
  0.00000000E+00  0.00000000E+00  0.00000000E+00
  0.00000000E+00  0.00000000E+00  0.00000000E+00
  0.00000000E+00  0.00000000E+00  0.00000000E+00
