Trisodium hexafluorovanadate(III)       
   1.00000000000000     
     5.4506497353540766    0.0000554915603427   -0.0501884846796483
     0.0000475625466838    5.7186602504888766   -0.0000140359447866
    -0.0914994905882061   -0.0000081456810500    7.8641721873903512
   Na   V    F 
     6     2    12
Direct
  0.9998014821721313  0.0009793505286737  0.4994681582679377
  0.4998226428267145  0.4990332358195815  0.9994777047871040
  0.5218885979308681  0.9368786283148367  0.2422990195096517
  0.4780918890850714  0.0630957057020325  0.7576595387990395
  0.9781113876146463  0.4369340481526436  0.2576461504460852
  0.0218764811817493  0.5631032232264346  0.7422820921893774
  0.9999522250759085  0.9999134684720588  0.0000709137933512
  0.4999489096697047  0.5000796168645678  0.5000867873496304
  0.1288480920236950  0.0641411284262148  0.2309552112244333
  0.8713831661917126  0.9360421174296931  0.7690373252691316
  0.3713948954277058  0.5639689138493083  0.2690558287038414
  0.6288684070268360  0.4358547799561734  0.7309499555781684
  0.7073866722548345  0.1801972678822281  0.0557580805362292
  0.2928100764183839  0.8194870569069934  0.9446769471416800
  0.7928345189528443  0.6804917579916818  0.4446997748709265
  0.2074044405423479  0.3197866213000395  0.5557519468732650
  0.1719621609975022  0.2823133390540562  0.9219734713316257
  0.8278060574731896  0.7175526638428735  0.0780819429648076
  0.3278276508960900  0.7824565842452813  0.5780929360062004
  0.6719802462380500  0.2176904820346337  0.4219761943574980
 
  0.00000000E+00  0.00000000E+00  0.00000000E+00
  0.00000000E+00  0.00000000E+00  0.00000000E+00
  0.00000000E+00  0.00000000E+00  0.00000000E+00
  0.00000000E+00  0.00000000E+00  0.00000000E+00
  0.00000000E+00  0.00000000E+00  0.00000000E+00
  0.00000000E+00  0.00000000E+00  0.00000000E+00
  0.00000000E+00  0.00000000E+00  0.00000000E+00
  0.00000000E+00  0.00000000E+00  0.00000000E+00
  0.00000000E+00  0.00000000E+00  0.00000000E+00
  0.00000000E+00  0.00000000E+00  0.00000000E+00
  0.00000000E+00  0.00000000E+00  0.00000000E+00
  0.00000000E+00  0.00000000E+00  0.00000000E+00
  0.00000000E+00  0.00000000E+00  0.00000000E+00
  0.00000000E+00  0.00000000E+00  0.00000000E+00
  0.00000000E+00  0.00000000E+00  0.00000000E+00
  0.00000000E+00  0.00000000E+00  0.00000000E+00
  0.00000000E+00  0.00000000E+00  0.00000000E+00
  0.00000000E+00  0.00000000E+00  0.00000000E+00
  0.00000000E+00  0.00000000E+00  0.00000000E+00
  0.00000000E+00  0.00000000E+00  0.00000000E+00
