V2 F6                                   
   1.00000000000000     
     4.5002191535448741    0.0126297645014650    2.8784897495543826
     1.5852255856715081    4.2102636414966961    2.8791225223919463
     0.0274541142378741    0.0209933123880596    5.3277973152474827
   V    F 
     2     6
Direct
  0.4996562293146348  0.4997895180777929  0.5000139725005339
 -0.0001637730948924  0.9996586637969364 -0.0000176835090336
  0.6323968281354948  0.2524294515526835  0.8641649455294281
  0.2483011636910265  0.8672558353044546  0.6357960462481630
  0.8659990916838406  0.6338698739035470  0.2502550210027628
  0.3674597713950701  0.7482632691923452  0.1357061381172991
  0.7524171845033815  0.1326978109669528  0.3638575969936001
  0.1339335043714371  0.3660355772052878  0.7502239631172467
 
  0.00000000E+00  0.00000000E+00  0.00000000E+00
  0.00000000E+00  0.00000000E+00  0.00000000E+00
  0.00000000E+00  0.00000000E+00  0.00000000E+00
  0.00000000E+00  0.00000000E+00  0.00000000E+00
  0.00000000E+00  0.00000000E+00  0.00000000E+00
  0.00000000E+00  0.00000000E+00  0.00000000E+00
  0.00000000E+00  0.00000000E+00  0.00000000E+00
  0.00000000E+00  0.00000000E+00  0.00000000E+00
