Sodium iron trifluoride                 
   1.00000000000000     
     5.3484815832855288   -0.0000002953441835   -0.0000011776506281
    -0.0000004058155028    7.4159733626160165   -0.0000001501048756
    -0.0000011028040391   -0.0000001057095290    5.1128641158552606
   Fe   F 
     4    12
Direct
  0.5000005229807055 -0.0000002715513332 -0.0000057435806039
  0.9999997524532315  0.0000002010997389  0.5000054092598051
  0.5000003766816690  0.5000001575089533 -0.0000060615852186
  0.0000003157651352  0.4999998274460135  0.5000059523119998
  0.4779277223666134  0.2499999681646350  0.1085718973625940
  0.5220717285929460  0.7499999876619659  0.8914278109339038
  0.0220717807543171  0.7499998979943989  0.6085722201557658
  0.9779277363063370  0.2499998845626478  0.3914282550086436
  0.2972891287845418  0.0524389262107206  0.6981957991793004
  0.7027112046615654  0.9475613236238576  0.3018044422333964
  0.2027112557385917  0.9475612712471794  0.1981954000401480
  0.7972885032166850  0.0524388519146742  0.8018044649444234
  0.7027110149313218  0.5524387960468081  0.3018043627160167
  0.2972889121762702  0.4475611886318520  0.6981957649126306
  0.7972886893378828  0.4475611897120293  0.8018046168345416
  0.2027113552521938  0.5524387997258591  0.1981954022726492
 
  0.00000000E+00  0.00000000E+00  0.00000000E+00
  0.00000000E+00  0.00000000E+00  0.00000000E+00
  0.00000000E+00  0.00000000E+00  0.00000000E+00
  0.00000000E+00  0.00000000E+00  0.00000000E+00
  0.00000000E+00  0.00000000E+00  0.00000000E+00
  0.00000000E+00  0.00000000E+00  0.00000000E+00
  0.00000000E+00  0.00000000E+00  0.00000000E+00
  0.00000000E+00  0.00000000E+00  0.00000000E+00
  0.00000000E+00  0.00000000E+00  0.00000000E+00
  0.00000000E+00  0.00000000E+00  0.00000000E+00
  0.00000000E+00  0.00000000E+00  0.00000000E+00
  0.00000000E+00  0.00000000E+00  0.00000000E+00
  0.00000000E+00  0.00000000E+00  0.00000000E+00
  0.00000000E+00  0.00000000E+00  0.00000000E+00
  0.00000000E+00  0.00000000E+00  0.00000000E+00
  0.00000000E+00  0.00000000E+00  0.00000000E+00
