Sodium hexafluoromanganate(III)         
   1.00000000000000     
     5.3720875915592083   -0.0001509182771096   -0.0162267086468245
    -0.0001653343418251    5.6866990820337708    0.0001890424124518
     0.1174505693117185    0.0002644727142353    7.9239557476703570
   Na   Mn   F 
     6     2    12
Direct
  0.0000663154278662  0.9999472187191483  0.4998948398399449
  0.5000914520494644  0.5000601938324996 -0.0001132120083994
  0.5178068592926890  0.9359947587278713  0.2495075398029438
  0.4818596979532832  0.0643462007883242  0.7509287767152240
  0.9818453696383379  0.4356711500302426  0.2509135429373622
  0.0178077708394205  0.5640047753144815  0.7495208673106696
  0.0001703858009067  0.0002376811054917 -0.0000662986712283
  0.5001860238940183  0.4997635340332810  0.4999279224607750
  0.1246422835723730  0.0606385973446431  0.2319314861293972
  0.8752746138226980  0.9398658216191095  0.7679841380278276
  0.3753040825083335  0.5601296929118809  0.2679788733868639
  0.6246242135288859  0.4393536113126239  0.7319324372934222
  0.7180366402301411  0.1724480224872658  0.0539396135916605
  0.2818074956924776  0.8277579066401539  0.9459714507119107
  0.7818369739765966  0.6722543626569796  0.4459550253694084
  0.2180330300379915  0.3275400672155515  0.5539543034345005
  0.1745385064836122  0.2874938174336746  0.9233608531101688
  0.8257677986010052  0.7128023804082716  0.0765680462174192
  0.3257292259515825  0.7872296929384303  0.5765890890855598
  0.6745712386983149  0.2124605224800757  0.4233206912545680
 
  0.00000000E+00  0.00000000E+00  0.00000000E+00
  0.00000000E+00  0.00000000E+00  0.00000000E+00
  0.00000000E+00  0.00000000E+00  0.00000000E+00
  0.00000000E+00  0.00000000E+00  0.00000000E+00
  0.00000000E+00  0.00000000E+00  0.00000000E+00
  0.00000000E+00  0.00000000E+00  0.00000000E+00
  0.00000000E+00  0.00000000E+00  0.00000000E+00
  0.00000000E+00  0.00000000E+00  0.00000000E+00
  0.00000000E+00  0.00000000E+00  0.00000000E+00
  0.00000000E+00  0.00000000E+00  0.00000000E+00
  0.00000000E+00  0.00000000E+00  0.00000000E+00
  0.00000000E+00  0.00000000E+00  0.00000000E+00
  0.00000000E+00  0.00000000E+00  0.00000000E+00
  0.00000000E+00  0.00000000E+00  0.00000000E+00
  0.00000000E+00  0.00000000E+00  0.00000000E+00
  0.00000000E+00  0.00000000E+00  0.00000000E+00
  0.00000000E+00  0.00000000E+00  0.00000000E+00
  0.00000000E+00  0.00000000E+00  0.00000000E+00
  0.00000000E+00  0.00000000E+00  0.00000000E+00
  0.00000000E+00  0.00000000E+00  0.00000000E+00
