V2 F8                                   
   1.00000000000000     
     4.6483061080022710   -0.0000009298100985    2.6652812218774309
    -0.0000004526614666    5.2091384530763403   -0.0000010018612729
    -0.0392201383597160   -0.0000010340493158    5.3148121469965304
   V    F 
     2     8
Direct
  0.5000031787234533  0.5000016893515493  0.4999970478498312
  0.0000031389799346  0.9999983131252534  0.9999971258629898
  0.8337125662650280  0.9092039656043411  0.7985331932181978
  0.3337124892434105  0.5907960734437552  0.2985329061182540
  0.1662839342367946  0.0907952684517852  0.2014705429708030
  0.6662840342318930  0.4092046823591460  0.7014708548707844
  0.3371278243944147  0.8016091307950504  0.7420287207806524
  0.8371279632615654  0.6983910237872806  0.2420286976910333
  0.6628725100928961  0.1983947047320953  0.2579704446988558
  0.1628723605706099  0.3016051483497364  0.7579704659385982
 
  0.00000000E+00  0.00000000E+00  0.00000000E+00
  0.00000000E+00  0.00000000E+00  0.00000000E+00
  0.00000000E+00  0.00000000E+00  0.00000000E+00
  0.00000000E+00  0.00000000E+00  0.00000000E+00
  0.00000000E+00  0.00000000E+00  0.00000000E+00
  0.00000000E+00  0.00000000E+00  0.00000000E+00
  0.00000000E+00  0.00000000E+00  0.00000000E+00
  0.00000000E+00  0.00000000E+00  0.00000000E+00
  0.00000000E+00  0.00000000E+00  0.00000000E+00
  0.00000000E+00  0.00000000E+00  0.00000000E+00
