Cu1 F1                                  
   1.00000000000000     
     6.7316363303934574    0.0001828138010019    0.0001290041299255
     3.3656242922459785    5.8298810883918177    0.0001261153112930
     3.3656254252852036    1.9432727591320151    5.4964413669168595
   Cu   F 
     8     8
Direct
  0.0000070414966942  0.0000071843422873  0.0000074925416769
  0.0000070332847955  0.0000071261684695  0.5000078787734381
  0.0000072678680638  0.5000067502643262  0.0000077308314133
  0.0000071061150493  0.5000066066553330  0.5000080226180046
  0.5000067486432869  0.0000073217450236  0.0000077276726458
  0.5000066168425548  0.0000071148269427  0.5000080190016902
  0.5000069083900982  0.5000067405154027  0.0000077035863342
  0.5000068119189933  0.5000067205390053  0.5000082429024033
  0.3749931238531232  0.3749935216333995  0.3749909805507485
  0.3749920801880435  0.3749915919937905  0.8749942450180868
  0.3749916339199189  0.8749947931014930  0.3749903400300525
  0.3749926544730044  0.8749932918735723  0.8749939285664325
  0.8749947584093007  0.3749916126695965  0.3749907985821395
  0.8749932674916607  0.3749926083923327  0.8749935147173957
  0.8749944175050572  0.8749940430953700  0.3749913721617020
  0.8749925696003515  0.8749930161836375  0.8749920064458081
 
  0.00000000E+00  0.00000000E+00  0.00000000E+00
  0.00000000E+00  0.00000000E+00  0.00000000E+00
  0.00000000E+00  0.00000000E+00  0.00000000E+00
  0.00000000E+00  0.00000000E+00  0.00000000E+00
  0.00000000E+00  0.00000000E+00  0.00000000E+00
  0.00000000E+00  0.00000000E+00  0.00000000E+00
  0.00000000E+00  0.00000000E+00  0.00000000E+00
  0.00000000E+00  0.00000000E+00  0.00000000E+00
  0.00000000E+00  0.00000000E+00  0.00000000E+00
  0.00000000E+00  0.00000000E+00  0.00000000E+00
  0.00000000E+00  0.00000000E+00  0.00000000E+00
  0.00000000E+00  0.00000000E+00  0.00000000E+00
  0.00000000E+00  0.00000000E+00  0.00000000E+00
  0.00000000E+00  0.00000000E+00  0.00000000E+00
  0.00000000E+00  0.00000000E+00  0.00000000E+00
  0.00000000E+00  0.00000000E+00  0.00000000E+00
