Sodium cobalt fluoride                  
   1.00000000000000     
     5.2502641105745864   -0.0369185378162582   -0.0001891418048058
    -0.0556265162364723    7.2318609318778080   -0.0000924118885216
     0.0001115815724568   -0.0002312098695306    4.9362600285969140
   Co   F 
     4    12
Direct
  0.5000217044922617  0.5000369193214141 -0.0000787947476688
  0.0000207291187562  0.5000297932645504  0.5000665143399109
  0.5000053309602769  0.0000171999613017  0.0000785007966611
 -0.0000094792499822  0.0000210259730307  0.4999335326284552
  0.4619469668157984  0.2487768706243966  0.1226611151223682
  0.5379965171558065  0.7514304658601869  0.8774661402717634
  0.0379614467809984  0.7514032393458041  0.6225072759918377
  0.9619684741001605  0.2488101313206043  0.3773626940393037
  0.1888869822501845  0.5626661246194203  0.1915461631505841
  0.8111436500558987  0.4371904948986746  0.8086992015409449
  0.3111800095040486  0.4372215762285304  0.6912904019303784
  0.6888808415005181  0.5626731612839810  0.3084499614228675
  0.8082740350932660  0.0585117541111857  0.8230098042232443
  0.1917323497508611  0.9413505341837931  0.1769089768824487
  0.6917411194253749  0.9413595097580481  0.3231043718755062
  0.3082492922457765  0.0585011992450786  0.6769941325313945
 
  0.00000000E+00  0.00000000E+00  0.00000000E+00
  0.00000000E+00  0.00000000E+00  0.00000000E+00
  0.00000000E+00  0.00000000E+00  0.00000000E+00
  0.00000000E+00  0.00000000E+00  0.00000000E+00
  0.00000000E+00  0.00000000E+00  0.00000000E+00
  0.00000000E+00  0.00000000E+00  0.00000000E+00
  0.00000000E+00  0.00000000E+00  0.00000000E+00
  0.00000000E+00  0.00000000E+00  0.00000000E+00
  0.00000000E+00  0.00000000E+00  0.00000000E+00
  0.00000000E+00  0.00000000E+00  0.00000000E+00
  0.00000000E+00  0.00000000E+00  0.00000000E+00
  0.00000000E+00  0.00000000E+00  0.00000000E+00
  0.00000000E+00  0.00000000E+00  0.00000000E+00
  0.00000000E+00  0.00000000E+00  0.00000000E+00
  0.00000000E+00  0.00000000E+00  0.00000000E+00
  0.00000000E+00  0.00000000E+00  0.00000000E+00
