Na3 Ni4 F12                             
   1.00000000000000     
     5.4117525152403072   -0.0000587287101946    0.0202464009553705
    -0.0000677470075341    7.4840646999305918   -0.0001202440048960
     0.0199911721295139   -0.0000956040408460    5.2323061400237716
   Na   Ni   F 
     3     4    12
Direct
  0.5607126207192566  0.2500213701940697  0.5197313592012297
  0.4420471182177009  0.7499840561072957  0.4885397828331219
  0.9405840723856812  0.7500132328843364  0.0136495785818739
  0.0011367933971205  0.4955611747339345  0.5019204180225311
  0.4949604385104787  0.0040490835901243  0.0008452480229238
  0.0011440948939624  0.0044295237192279  0.5019309272711727
  0.4949445154701027  0.4959534494205643  0.0008394957054417
  0.9705340727222901  0.2500134875157331  0.4030653075601852
  0.4702727671568206  0.2500298416996027  0.1035968297861401
  0.0242407196763375  0.7499752432506062  0.5978168831283424
  0.5272963332538151  0.7499828250110270  0.9060751107440432
  0.7022518531038842  0.5518903973410215  0.3011360735841463
  0.2053641235521756  0.9407773589173544  0.2044565372052736
  0.3097028442235011  0.0397386815587913  0.6851331612718473
  0.7925223898030457  0.4536504482679281  0.7984309900170876
  0.3096679113004973  0.4602614164497641  0.6851019885952304
  0.7925341149471037  0.0463020468170743  0.7984718618825600
  0.7022584197799550  0.9481177083946533  0.3011454763286223
  0.2053247968862683  0.5592486541268777  0.2044129702582356
 
  0.00000000E+00  0.00000000E+00  0.00000000E+00
  0.00000000E+00  0.00000000E+00  0.00000000E+00
  0.00000000E+00  0.00000000E+00  0.00000000E+00
  0.00000000E+00  0.00000000E+00  0.00000000E+00
  0.00000000E+00  0.00000000E+00  0.00000000E+00
  0.00000000E+00  0.00000000E+00  0.00000000E+00
  0.00000000E+00  0.00000000E+00  0.00000000E+00
  0.00000000E+00  0.00000000E+00  0.00000000E+00
  0.00000000E+00  0.00000000E+00  0.00000000E+00
  0.00000000E+00  0.00000000E+00  0.00000000E+00
  0.00000000E+00  0.00000000E+00  0.00000000E+00
  0.00000000E+00  0.00000000E+00  0.00000000E+00
  0.00000000E+00  0.00000000E+00  0.00000000E+00
  0.00000000E+00  0.00000000E+00  0.00000000E+00
  0.00000000E+00  0.00000000E+00  0.00000000E+00
  0.00000000E+00  0.00000000E+00  0.00000000E+00
  0.00000000E+00  0.00000000E+00  0.00000000E+00
  0.00000000E+00  0.00000000E+00  0.00000000E+00
  0.00000000E+00  0.00000000E+00  0.00000000E+00
