2O-Disodium diiron(II,III) heptafluoride
   1.00000000000000     
    -3.7323776353669014    5.1164188627260048    3.6495050052766747
     3.7472366587227084   -5.1080958036422137    3.6402795619926218
     3.7278349143415483    5.1117587214472939   -3.6554044704436839
   Na   Fe   F 
     4     4    14
Direct
  0.0000417106746607  0.0009862024799389  0.0006692640982408
  0.5000824882925599 -0.0000133925159738  0.5001252754887933
  0.9994574073301563  0.9995177336045127  0.5000870770434562
  0.0006517973534588  0.5007004985637985  0.0001816935191161
  0.4992205391452624  0.4998699503361851  0.4993616450371836
  0.5004700396148311  0.9998164829515372  0.0005379955278881
  0.5003525730995130  0.4992421547740925  0.9990046704646703
  0.0000973450351024  0.5010027482040490  0.5008255071533338
  0.4385699407916085  0.1899611939159634  0.2485366419800207
  0.5609700496160758  0.8096350083621567  0.7512609184881378
  0.1341534011312418  0.7350291582869403  0.4001478406639588
  0.8655879423672432  0.2655681440818896  0.6000597543374594
  0.8345785211142864  0.7340793735517899  0.0996634709376959
  0.1661255949547151  0.2653366752286424  0.8997862967097672
  0.8151110377278734  0.6596236607600928  0.6031310319512028
  0.1836287639421658  0.3412577951109431  0.3971514222133605
  0.5571308609403709  0.2113599603611039  0.8956735063166950
  0.4434134802030396  0.7869663494322736  0.1037858494649362
  0.4431604355066972  0.3387525709089404  0.6546274836776453
  0.5564752536439342  0.6602709520290769  0.3437574606007480
  0.1845554658632214  0.7878345809593434  0.8443594014467046
  0.8161654106519771  0.2132021986126893  0.1572657928789852
 
  0.00000000E+00  0.00000000E+00  0.00000000E+00
  0.00000000E+00  0.00000000E+00  0.00000000E+00
  0.00000000E+00  0.00000000E+00  0.00000000E+00
  0.00000000E+00  0.00000000E+00  0.00000000E+00
  0.00000000E+00  0.00000000E+00  0.00000000E+00
  0.00000000E+00  0.00000000E+00  0.00000000E+00
  0.00000000E+00  0.00000000E+00  0.00000000E+00
  0.00000000E+00  0.00000000E+00  0.00000000E+00
  0.00000000E+00  0.00000000E+00  0.00000000E+00
  0.00000000E+00  0.00000000E+00  0.00000000E+00
  0.00000000E+00  0.00000000E+00  0.00000000E+00
  0.00000000E+00  0.00000000E+00  0.00000000E+00
  0.00000000E+00  0.00000000E+00  0.00000000E+00
  0.00000000E+00  0.00000000E+00  0.00000000E+00
  0.00000000E+00  0.00000000E+00  0.00000000E+00
  0.00000000E+00  0.00000000E+00  0.00000000E+00
  0.00000000E+00  0.00000000E+00  0.00000000E+00
  0.00000000E+00  0.00000000E+00  0.00000000E+00
  0.00000000E+00  0.00000000E+00  0.00000000E+00
  0.00000000E+00  0.00000000E+00  0.00000000E+00
  0.00000000E+00  0.00000000E+00  0.00000000E+00
  0.00000000E+00  0.00000000E+00  0.00000000E+00
