Mn2 F6                                  
   1.00000000000000     
     9.7966311759795381    0.0006320975309880    0.0005770853632869
     2.4494460900195638    4.3827953797488179   -0.0120273204782284
     2.4495042416133810    1.2276684084465541    4.5048972086745751
   Mn   F 
     4    12
Direct
  0.2499708999375727  0.4999657957400174  0.5000286284222852
  0.7499712001173151  0.4999647785870636  0.5000290544594961
  0.9999661980037757  0.0000195337645295  0.9999387680250322
  0.4999680322680931  0.0000162181084420  0.9999411865575212
  0.1897950613970707  0.7499278966194254  0.7500148301229856
  0.6897953665285286  0.7499278063312360  0.7500162569461324
  0.3102027736803450  0.2500360530451289  0.2499688835341516
  0.8102026336675792  0.2500344272503128  0.2499671637634435
  0.3821815992647828  0.1104183117958613  0.7651278993486130
  0.8821819948810941  0.1104170621040907  0.7651281132060603
  0.0699615259992115  0.3895458634083369  0.7348804700947795
  0.5699623607299742  0.3895435941072236  0.7348824512409138
  0.1178466555838469  0.8896415194541660  0.2349046531717249
  0.6178451187636611  0.8896355828618923  0.2349079320212013
  0.4300740513071517  0.6104526741102632  0.2651320112687543
  0.9300744678699928  0.6104528527120081  0.2651316978169191
 
  0.00000000E+00  0.00000000E+00  0.00000000E+00
  0.00000000E+00  0.00000000E+00  0.00000000E+00
  0.00000000E+00  0.00000000E+00  0.00000000E+00
  0.00000000E+00  0.00000000E+00  0.00000000E+00
  0.00000000E+00  0.00000000E+00  0.00000000E+00
  0.00000000E+00  0.00000000E+00  0.00000000E+00
  0.00000000E+00  0.00000000E+00  0.00000000E+00
  0.00000000E+00  0.00000000E+00  0.00000000E+00
  0.00000000E+00  0.00000000E+00  0.00000000E+00
  0.00000000E+00  0.00000000E+00  0.00000000E+00
  0.00000000E+00  0.00000000E+00  0.00000000E+00
  0.00000000E+00  0.00000000E+00  0.00000000E+00
  0.00000000E+00  0.00000000E+00  0.00000000E+00
  0.00000000E+00  0.00000000E+00  0.00000000E+00
  0.00000000E+00  0.00000000E+00  0.00000000E+00
  0.00000000E+00  0.00000000E+00  0.00000000E+00
