Fe2 F4                                  
   1.00000000000000     
     4.6976187109577081   -0.0000071436043485   -0.0000002783189936
    -0.0000072905675826    4.6978091606920911   -0.0000002042594547
    -0.0000001047775856   -0.0000004707891127    3.2968547076191133
   Fe   F 
     2     4
Direct
  0.5000509678667827  0.4999791104879883  0.4999999878184938
  0.0000513686108639  0.0000212476890454  0.0000000389151627
  0.1986632905944449  0.8013374351633213  0.4999999133738511
  0.8012855698684628  0.1987120227576723  0.5000000625315306
  0.3012855989146898  0.3012875234103360 -0.0000001749665947
  0.6986632041447559  0.6986626604916366  0.0000001723275565
 
  0.00000000E+00  0.00000000E+00  0.00000000E+00
  0.00000000E+00  0.00000000E+00  0.00000000E+00
  0.00000000E+00  0.00000000E+00  0.00000000E+00
  0.00000000E+00  0.00000000E+00  0.00000000E+00
  0.00000000E+00  0.00000000E+00  0.00000000E+00
  0.00000000E+00  0.00000000E+00  0.00000000E+00
