Sodium iron trifluoride                 
   1.00000000000000     
     5.6355898519209289    0.0000289796510090   -0.0000847354719508
     0.0000446919519326    7.8929609086523769   -0.0000299845454683
    -0.0000939414716051   -0.0000219661741435    5.4175030007337996
   Na   Fe   F 
     4     4    12
Direct
  0.0584793848294325  0.2500004309393731  0.9841498473579406
  0.9415144326109512  0.7500000015369821  0.0158519759137405
  0.4414819924346318  0.7500000842783052  0.4841502151856716
  0.5585050932519238  0.2500004153645179  0.5158462431307598
  0.5000221583002116  0.0000123993370664  0.9999973930706858
  0.0000153533649581  0.0000104246947856  0.4999921334621860
  0.5000217401062841  0.4999881018924697  0.9999975552397231
  0.0000148302083360  0.4999897920559633  0.4999931040082473
  0.4454659703281152  0.2500016500806836  0.1184700393260414
  0.5545347389090693  0.7499986425313736  0.8815050789774475
  0.0545401387082762  0.7500007666749084  0.6185147964270925
  0.9454567536717846  0.2499996180530957  0.3815050064461687
  0.2963962484609155  0.0630336719410707  0.6870111774607679
  0.7035909854413376  0.9369714316444089  0.3129452302942184
  0.2036114372121034  0.9369747076182051  0.1871024749884711
  0.7963759076560137  0.0630318260557132  0.8129534996879926
  0.7035921658796056  0.5630286678916718  0.3129417097313620
  0.2963949291956354  0.4369673772724596  0.6870150088550986
  0.7963802331204590  0.4369705620336362  0.8129538230888897
  0.2036055103099415  0.5630194281033098  0.1871036803474979
 
  0.00000000E+00  0.00000000E+00  0.00000000E+00
  0.00000000E+00  0.00000000E+00  0.00000000E+00
  0.00000000E+00  0.00000000E+00  0.00000000E+00
  0.00000000E+00  0.00000000E+00  0.00000000E+00
  0.00000000E+00  0.00000000E+00  0.00000000E+00
  0.00000000E+00  0.00000000E+00  0.00000000E+00
  0.00000000E+00  0.00000000E+00  0.00000000E+00
  0.00000000E+00  0.00000000E+00  0.00000000E+00
  0.00000000E+00  0.00000000E+00  0.00000000E+00
  0.00000000E+00  0.00000000E+00  0.00000000E+00
  0.00000000E+00  0.00000000E+00  0.00000000E+00
  0.00000000E+00  0.00000000E+00  0.00000000E+00
  0.00000000E+00  0.00000000E+00  0.00000000E+00
  0.00000000E+00  0.00000000E+00  0.00000000E+00
  0.00000000E+00  0.00000000E+00  0.00000000E+00
  0.00000000E+00  0.00000000E+00  0.00000000E+00
  0.00000000E+00  0.00000000E+00  0.00000000E+00
  0.00000000E+00  0.00000000E+00  0.00000000E+00
  0.00000000E+00  0.00000000E+00  0.00000000E+00
  0.00000000E+00  0.00000000E+00  0.00000000E+00
