Sodium cobalt fluoride                  
   1.00000000000000     
     5.5855984114241908    0.0016916297965806    0.0014726658984509
     0.0006013300822751    7.7202591228820072   -0.0124443099656025
     0.0021198236594344   -0.0093101641998851    5.3762017764774273
   Na   Co   F 
     4     4    12
Direct
  0.0631171375471240  0.2525257165067600  0.9816410107164870
  0.9368931968948360  0.7474785289521435  0.0183593067239229
  0.4380667000116887  0.7509578842120419  0.4819641017062466
  0.5619360603605799  0.2490447141397709  0.5180266262553772
  0.4999801483593771  0.5000078732208593  0.0000031741543367
  0.9999963025918532  0.4999994974765229  0.4999890274067553
  0.4999831917541186  0.0000079467189451  0.9999886242083065
  0.9999958346049667  0.0000107472767468  0.5000027295771048
  0.4577343728343308  0.2497041798872388  0.1150386220099051
  0.5422753353318868  0.7502817043244434  0.8849588356855662
  0.0404586212386064  0.7502887935301885  0.6141043119545557
  0.9595430629709156  0.2496961473203925  0.3859083557695797
  0.1962159376505852  0.5563267026568326  0.1918710921941411
  0.8037455329072785  0.4436442497479476  0.8081163703166254
  0.3024346169170968  0.4423024033717198  0.6935885308340772
  0.6975607868479585  0.5576886528011968  0.3064367913486592
  0.8019809325615626  0.0613244672443543  0.8063129266531419
  0.1980614228926001  0.9386809434260996  0.1936615770902108
  0.6973558287127446  0.9406282951184721  0.3070614281902451
  0.3026649500098983  0.0594005520673235  0.6929665452047402
 
  0.00000000E+00  0.00000000E+00  0.00000000E+00
  0.00000000E+00  0.00000000E+00  0.00000000E+00
  0.00000000E+00  0.00000000E+00  0.00000000E+00
  0.00000000E+00  0.00000000E+00  0.00000000E+00
  0.00000000E+00  0.00000000E+00  0.00000000E+00
  0.00000000E+00  0.00000000E+00  0.00000000E+00
  0.00000000E+00  0.00000000E+00  0.00000000E+00
  0.00000000E+00  0.00000000E+00  0.00000000E+00
  0.00000000E+00  0.00000000E+00  0.00000000E+00
  0.00000000E+00  0.00000000E+00  0.00000000E+00
  0.00000000E+00  0.00000000E+00  0.00000000E+00
  0.00000000E+00  0.00000000E+00  0.00000000E+00
  0.00000000E+00  0.00000000E+00  0.00000000E+00
  0.00000000E+00  0.00000000E+00  0.00000000E+00
  0.00000000E+00  0.00000000E+00  0.00000000E+00
  0.00000000E+00  0.00000000E+00  0.00000000E+00
  0.00000000E+00  0.00000000E+00  0.00000000E+00
  0.00000000E+00  0.00000000E+00  0.00000000E+00
  0.00000000E+00  0.00000000E+00  0.00000000E+00
  0.00000000E+00  0.00000000E+00  0.00000000E+00
