Nickel trifluoride - R
1.0
        5.1606001854         0.0000000000         0.0000000000
        2.9160145803         4.2577756213         0.0000000000
        2.9160145803         1.5372450156         3.9705832069
    Ni   F
    2    6
Direct
     0.000000000         0.000000000         0.000000000
     0.500000000         0.500000000         0.500000000
     0.899200022         0.620899975         0.234200001
     0.100799978         0.379100025         0.765799999
     0.234200001         0.899200022         0.620899975
     0.765799999         0.100799978         0.379100025
     0.620899975         0.234200001         0.899200022
     0.379100025         0.765799999         0.100799978
