Mn8 F32                                 
   1.00000000000000     
    -0.0002572250797091   -0.0001744486988626   -5.9796937481947419
    -6.2943735477890383   -6.2941972212728690   -2.9903019649127960
    -6.2947376383481304    6.2943941580574405   -2.9899349443632466
   Mn   F 
     8    32
Direct
  0.1148457494539841  0.7409674717138586  0.5002453207957629
  0.3558485415450505  0.7590056509806757  0.9996997574086137
  0.6139459855931690  0.0000573695583910  0.7409409898400696
  0.3553733316016192  0.4999690142450746  0.7589777399139948
  0.8851537479465748  0.2590323764913975  0.4997537124536606
  0.6441544538753305  0.2409933477552499  0.0002988239284534
  0.3860561090465850  0.9999421860825422  0.2590582320026940
  0.6446250315517901  0.5000297144834391  0.2410205599827933
  0.3041425306084946  0.5925498159843414  0.3564587190576916
  0.2533524040788819  0.9074213093008865  0.1435687453812164
  0.6609492376250827  0.1434723251731072  0.5929483245604104
  0.3975440612391310  0.3565007580612658  0.9070277304494212
  0.6958542806141850  0.4074530337494124  0.6435388106984590
  0.7466513723789632  0.0925807584627449  0.8564295671443176
  0.3390577126760803  0.8565210405882198  0.4070463804707103
  0.6024653300947591  0.6434913189673637  0.0929639096722212
  0.5085275181448594  0.3869619752116762  0.1484665930789362
  0.0440735863896151  0.1130350389816996  0.3515881377001762
  0.6565852594170849  0.3519072321660772  0.3867079732928929
  0.3954720344707141  0.1480449427183856  0.1133638295297388
  0.4914687049857775  0.6130368687265459  0.8515359583688706
  0.9559280166475546  0.8869644801342389  0.6484147703503993
  0.3434099933626484  0.6480959475789305  0.6132951114598768
  0.6045258360655978  0.8519586080709800  0.8866391369371911
  0.9328389209612169  0.8334810651043512  0.3904310102635691
  0.1565869982814547  0.6665325680226459  0.1095547090498883
  0.3225617935824445  0.1097623442601190  0.8339622128982356
  0.2664352973405784  0.3902437892223176  0.6661450966085383
  0.0671561899235513  0.1665234504836164  0.6095726625678708
  0.8434106171117364  0.3334715359969849  0.8904492519731093
  0.6774411652870640  0.8902445470999467  0.1660282372523980
  0.7335606571860538  0.6097610017019406  0.3338478024523184
  0.9278050255228578  0.6338380848765084  0.5922453094233617
  0.1536514515705960  0.8661154618305673  0.9077540447199439
  0.5197424871270968  0.9076495946947674  0.6337882073572985
  0.0614312553334315  0.5923200084529796  0.8661408093798428
  0.0721942298474403  0.3661642037216311  0.4077568368460831
  0.8463452676601406  0.1338866621668018  0.0922483609911637
  0.4802581159909352  0.0923429990693165  0.3662188509083180
  0.9385696978598759  0.4076700981090013  0.1338677628294960
 
  0.00000000E+00  0.00000000E+00  0.00000000E+00
  0.00000000E+00  0.00000000E+00  0.00000000E+00
  0.00000000E+00  0.00000000E+00  0.00000000E+00
  0.00000000E+00  0.00000000E+00  0.00000000E+00
  0.00000000E+00  0.00000000E+00  0.00000000E+00
  0.00000000E+00  0.00000000E+00  0.00000000E+00
  0.00000000E+00  0.00000000E+00  0.00000000E+00
  0.00000000E+00  0.00000000E+00  0.00000000E+00
  0.00000000E+00  0.00000000E+00  0.00000000E+00
  0.00000000E+00  0.00000000E+00  0.00000000E+00
  0.00000000E+00  0.00000000E+00  0.00000000E+00
  0.00000000E+00  0.00000000E+00  0.00000000E+00
  0.00000000E+00  0.00000000E+00  0.00000000E+00
  0.00000000E+00  0.00000000E+00  0.00000000E+00
  0.00000000E+00  0.00000000E+00  0.00000000E+00
  0.00000000E+00  0.00000000E+00  0.00000000E+00
  0.00000000E+00  0.00000000E+00  0.00000000E+00
  0.00000000E+00  0.00000000E+00  0.00000000E+00
  0.00000000E+00  0.00000000E+00  0.00000000E+00
  0.00000000E+00  0.00000000E+00  0.00000000E+00
  0.00000000E+00  0.00000000E+00  0.00000000E+00
  0.00000000E+00  0.00000000E+00  0.00000000E+00
  0.00000000E+00  0.00000000E+00  0.00000000E+00
  0.00000000E+00  0.00000000E+00  0.00000000E+00
  0.00000000E+00  0.00000000E+00  0.00000000E+00
  0.00000000E+00  0.00000000E+00  0.00000000E+00
  0.00000000E+00  0.00000000E+00  0.00000000E+00
  0.00000000E+00  0.00000000E+00  0.00000000E+00
  0.00000000E+00  0.00000000E+00  0.00000000E+00
  0.00000000E+00  0.00000000E+00  0.00000000E+00
  0.00000000E+00  0.00000000E+00  0.00000000E+00
  0.00000000E+00  0.00000000E+00  0.00000000E+00
  0.00000000E+00  0.00000000E+00  0.00000000E+00
  0.00000000E+00  0.00000000E+00  0.00000000E+00
  0.00000000E+00  0.00000000E+00  0.00000000E+00
  0.00000000E+00  0.00000000E+00  0.00000000E+00
  0.00000000E+00  0.00000000E+00  0.00000000E+00
  0.00000000E+00  0.00000000E+00  0.00000000E+00
  0.00000000E+00  0.00000000E+00  0.00000000E+00
  0.00000000E+00  0.00000000E+00  0.00000000E+00
