V2 F8                                   
   1.00000000000000     
    10.7620010375999993    0.0000000000000000    0.0000000000000000
     0.0000000000000000   10.3400001526000000    0.0000000000000000
     5.3819154617000002    0.0000000000000000    9.2248247940999999
   V    V    F 
     1    15    64
Direct
  0.2501008379719281  0.2500063424593009  0.2500960795518665
  0.2501001799181495  0.2500072771055812  0.7500939831401112
  0.2501008655922377  0.7500061798019573  0.2500957144665037
  0.2501002068698952  0.7500074276258104  0.7500941335727802
  0.7500996501364767  0.2500071481122603  0.2500943536045810
  0.7501014193356923  0.2500064872848853  0.7500956852956620
  0.7500994883588561  0.7500071792242480  0.2500946946950222
  0.7501013237661596  0.7500066333587014  0.7500957626437668
  0.9999904984641645  0.0000011381947118  0.9998353451875204
  0.9999881362402547  0.0000015473527171  0.4998352218848794
  0.9999909752189993  0.5000009278513886  0.9998354383126795
  0.9999882431966043  0.5000014274649729  0.4998348910127604
  0.4999918555178269  0.0000016377621748  0.9998377056259642
  0.4999866840635789  0.0000003141907854  0.4998330386446810
  0.4999916597976224  0.5000019017388766  0.9998371443174037
  0.4999871822294821  0.5000006768233547  0.4998335475118694
  0.4190261814811649  0.4563324734861141  0.4004753722911616
  0.4190281004063721  0.4563335845615200  0.9004771514373857
  0.4190263321892118  0.9563325381769232  0.4004755284276911
  0.4190280506465598  0.9563334785267301  0.9004770791166479
  0.9190257233039176  0.4563322671000378  0.4004748272133014
  0.9190285486266703  0.4563337981743842  0.9004776981357949
  0.9190258070896533  0.9563322764124607  0.4004749377419898
  0.9190284634869954  0.9563337180183851  0.9004775907065010
  0.1696461366104174  0.2951607343773333  0.1507021610206962
  0.1696458429740488  0.2951609796472781  0.6507022074553035
  0.1696460911573254  0.7951607889180536  0.1507020895357059
  0.1696457435798493  0.7951610097277708  0.6507020841507725
  0.6696465708696806  0.2951604773801790  0.1507027461279549
  0.6696450682133417  0.2951613587027353  0.6507012559531660
  0.6696466431330776  0.7951604528327962  0.1507028623410562
  0.6696452533521011  0.7951613154969550  0.6507015117236961
  0.0802845026809536  0.0451706724474619  0.0993613741244062
  0.0802809132241009  0.0451725509529481  0.5993639708904936
  0.0802845654645239  0.5451706534993264  0.0993613053978777
  0.0802809498831607  0.5451727535280781  0.5993640443589783
  0.5802839436444600  0.0451703285392071  0.0993606399533249
  0.5802822969464216  0.0451699116480100  0.5993638195427735
  0.5802839997496463  0.5451704225023590  0.0993606573851338
  0.5802821470461552  0.5451725717337013  0.5993643117050667
  0.3309176186283409  0.2063272001008585  0.3495847244992802
  0.3309197092050269  0.2063263926228345  0.8495867969944015
  0.3309176462788557  0.7063271984949182  0.3495848345025792
  0.3309195696833456  0.7063264554944766  0.8495866317317180
  0.8309182235893076  0.2063268742582949  0.3495854244037844
  0.8309191372805671  0.2063267514353129  0.8495860095023602
  0.8309183046271897  0.7063269064364377  0.3495855088417272
  0.8309190207777988  0.7063267790012304  0.8495859314416307
  0.1674565457381760  0.4002616893683353  0.3710914122825173
  0.1674572178702434  0.4002612099197194  0.8710914619903392
  0.1674565022482994  0.9002618200589509  0.3710914378635408
  0.1674574478185704  0.9002613660484613  0.8710911954181313
  0.6674566443397723  0.4002615916541927  0.3710915377004369
  0.6674571869749499  0.4002612884814667  0.8710912552608221
  0.6674567832801515  0.9002614837954255  0.3710913871193711
  0.6674575206218307  0.9002612298576480  0.8710911508968238
  0.4188568401155734  0.3482363275682943  0.1193454908204004
  0.4188568988722494  0.3482358470491675  0.6193457748308973
  0.4188568547449734  0.8482362837818087  0.1193455445013427
  0.4188568570359266  0.8482357654024284  0.6193457371065278
  0.9188568692991339  0.3482363052924384  0.1193456443892416
  0.9188566777453318  0.3482358391867351  0.6193457612693152
  0.9188568137355730  0.8482363020953301  0.1193456651543059
  0.9188568873531935  0.8482357857701643  0.6193455892891180
  0.3311661057327768  0.0982468273947035  0.1306263651104089
  0.3311645959113534  0.0982467663403668  0.6306258262850903
  0.3311660891581596  0.5982467054716025  0.1306262481227876
  0.3311644396221567  0.5982468559684690  0.6306260274902087
  0.8311662445912233  0.0982468187879775  0.1306262711160286
  0.8311643986311026  0.0982467003242178  0.6306259151736526
  0.8311663702018492  0.5982468608313738  0.1306262584192766
  0.8311644019787465  0.5982468463364512  0.6306258236198019
  0.0825572831809041  0.1502545842524938  0.3788774223319535
  0.0825552785549419  0.1502567824110130  0.8788823671757129
  0.0825571499053552  0.6502544185743346  0.3788774538526738
  0.0825553514387707  0.6502568583900725  0.8788824576373457
  0.5825574552675548  0.1502545319512052  0.3788774471348617
  0.5825554088909186  0.1502569564583922  0.8788823369296708
  0.5825574550075601  0.6502545937871815  0.3788774470990859
  0.5825551716244703  0.6502570928027467  0.8788824584858546
 
  0.00000000E+00  0.00000000E+00  0.00000000E+00
  0.00000000E+00  0.00000000E+00  0.00000000E+00
  0.00000000E+00  0.00000000E+00  0.00000000E+00
  0.00000000E+00  0.00000000E+00  0.00000000E+00
  0.00000000E+00  0.00000000E+00  0.00000000E+00
  0.00000000E+00  0.00000000E+00  0.00000000E+00
  0.00000000E+00  0.00000000E+00  0.00000000E+00
  0.00000000E+00  0.00000000E+00  0.00000000E+00
  0.00000000E+00  0.00000000E+00  0.00000000E+00
  0.00000000E+00  0.00000000E+00  0.00000000E+00
  0.00000000E+00  0.00000000E+00  0.00000000E+00
  0.00000000E+00  0.00000000E+00  0.00000000E+00
  0.00000000E+00  0.00000000E+00  0.00000000E+00
  0.00000000E+00  0.00000000E+00  0.00000000E+00
  0.00000000E+00  0.00000000E+00  0.00000000E+00
  0.00000000E+00  0.00000000E+00  0.00000000E+00
  0.00000000E+00  0.00000000E+00  0.00000000E+00
  0.00000000E+00  0.00000000E+00  0.00000000E+00
  0.00000000E+00  0.00000000E+00  0.00000000E+00
  0.00000000E+00  0.00000000E+00  0.00000000E+00
  0.00000000E+00  0.00000000E+00  0.00000000E+00
  0.00000000E+00  0.00000000E+00  0.00000000E+00
  0.00000000E+00  0.00000000E+00  0.00000000E+00
  0.00000000E+00  0.00000000E+00  0.00000000E+00
  0.00000000E+00  0.00000000E+00  0.00000000E+00
  0.00000000E+00  0.00000000E+00  0.00000000E+00
  0.00000000E+00  0.00000000E+00  0.00000000E+00
  0.00000000E+00  0.00000000E+00  0.00000000E+00
  0.00000000E+00  0.00000000E+00  0.00000000E+00
  0.00000000E+00  0.00000000E+00  0.00000000E+00
  0.00000000E+00  0.00000000E+00  0.00000000E+00
  0.00000000E+00  0.00000000E+00  0.00000000E+00
  0.00000000E+00  0.00000000E+00  0.00000000E+00
  0.00000000E+00  0.00000000E+00  0.00000000E+00
  0.00000000E+00  0.00000000E+00  0.00000000E+00
  0.00000000E+00  0.00000000E+00  0.00000000E+00
  0.00000000E+00  0.00000000E+00  0.00000000E+00
  0.00000000E+00  0.00000000E+00  0.00000000E+00
  0.00000000E+00  0.00000000E+00  0.00000000E+00
  0.00000000E+00  0.00000000E+00  0.00000000E+00
  0.00000000E+00  0.00000000E+00  0.00000000E+00
  0.00000000E+00  0.00000000E+00  0.00000000E+00
  0.00000000E+00  0.00000000E+00  0.00000000E+00
  0.00000000E+00  0.00000000E+00  0.00000000E+00
  0.00000000E+00  0.00000000E+00  0.00000000E+00
  0.00000000E+00  0.00000000E+00  0.00000000E+00
  0.00000000E+00  0.00000000E+00  0.00000000E+00
  0.00000000E+00  0.00000000E+00  0.00000000E+00
  0.00000000E+00  0.00000000E+00  0.00000000E+00
  0.00000000E+00  0.00000000E+00  0.00000000E+00
  0.00000000E+00  0.00000000E+00  0.00000000E+00
  0.00000000E+00  0.00000000E+00  0.00000000E+00
  0.00000000E+00  0.00000000E+00  0.00000000E+00
  0.00000000E+00  0.00000000E+00  0.00000000E+00
  0.00000000E+00  0.00000000E+00  0.00000000E+00
  0.00000000E+00  0.00000000E+00  0.00000000E+00
  0.00000000E+00  0.00000000E+00  0.00000000E+00
  0.00000000E+00  0.00000000E+00  0.00000000E+00
  0.00000000E+00  0.00000000E+00  0.00000000E+00
  0.00000000E+00  0.00000000E+00  0.00000000E+00
  0.00000000E+00  0.00000000E+00  0.00000000E+00
  0.00000000E+00  0.00000000E+00  0.00000000E+00
  0.00000000E+00  0.00000000E+00  0.00000000E+00
  0.00000000E+00  0.00000000E+00  0.00000000E+00
  0.00000000E+00  0.00000000E+00  0.00000000E+00
  0.00000000E+00  0.00000000E+00  0.00000000E+00
  0.00000000E+00  0.00000000E+00  0.00000000E+00
  0.00000000E+00  0.00000000E+00  0.00000000E+00
  0.00000000E+00  0.00000000E+00  0.00000000E+00
  0.00000000E+00  0.00000000E+00  0.00000000E+00
  0.00000000E+00  0.00000000E+00  0.00000000E+00
  0.00000000E+00  0.00000000E+00  0.00000000E+00
  0.00000000E+00  0.00000000E+00  0.00000000E+00
  0.00000000E+00  0.00000000E+00  0.00000000E+00
  0.00000000E+00  0.00000000E+00  0.00000000E+00
  0.00000000E+00  0.00000000E+00  0.00000000E+00
  0.00000000E+00  0.00000000E+00  0.00000000E+00
  0.00000000E+00  0.00000000E+00  0.00000000E+00
  0.00000000E+00  0.00000000E+00  0.00000000E+00
  0.00000000E+00  0.00000000E+00  0.00000000E+00
