V2 F8
1.0
       10.7620010376         0.0000000000         0.0000000000
        0.0000000000        10.3400001526         0.0000000000
        5.3819154617         0.0000000000         9.2248247941
    V  V    F
    1  15   64
Direct
     0.250000000         0.250000000         0.250000000
     0.250000000         0.250000000         0.750000000
     0.250000000         0.750000000         0.250000000
     0.250000000         0.750000000         0.750000000
     0.750000000         0.250000000         0.250000000
     0.750000000         0.250000000         0.750000000
     0.750000000         0.750000000         0.250000000
     0.750000000         0.750000000         0.750000000
     0.000000000         0.000000000         0.000000000
     0.000000000         0.000000000         0.500000000
     0.000000000         0.500000000         0.000000000
     0.000000000         0.500000000         0.500000000
     0.500000000         0.000000000         0.000000000
     0.500000000         0.000000000         0.500000000
     0.500000000         0.500000000         0.000000000
     0.500000000         0.500000000         0.500000000
     0.419299990         0.457100004         0.404749990
     0.419299990         0.457100004         0.904749990
     0.419299990         0.957100034         0.404749990
     0.419299990         0.957100034         0.904749990
     0.919299960         0.457100004         0.404749990
     0.919299960         0.457100004         0.904749990
     0.919299960         0.957100034         0.404749990
     0.919299960         0.957100034         0.904749990
     0.169300005         0.292899996         0.154750004
     0.169300005         0.292899996         0.654749990
     0.169300005         0.792899966         0.154750004
     0.169300005         0.792899966         0.654749990
     0.669300020         0.292899996         0.154750004
     0.669300020         0.292899996         0.654749990
     0.669300020         0.792899966         0.154750004
     0.669300020         0.792899966         0.654749990
     0.080700003         0.042900000         0.095250003
     0.080700003         0.042900000         0.595250010
     0.080700003         0.542900026         0.095250003
     0.080700003         0.542900026         0.595250010
     0.580699980         0.042900000         0.095250003
     0.580699980         0.042900000         0.595250010
     0.580699980         0.542900026         0.095250003
     0.580699980         0.542900026         0.595250010
     0.330700010         0.207100004         0.345250010
     0.330700010         0.207100004         0.845250010
     0.330700010         0.707100034         0.345250010
     0.330700010         0.707100034         0.845250010
     0.830700040         0.207100004         0.345250010
     0.830700040         0.207100004         0.845250010
     0.830700040         0.707100034         0.345250010
     0.830700040         0.707100034         0.845250010
     0.165350005         0.398799986         0.371899992
     0.165350005         0.398799986         0.871899962
     0.165350005         0.898800015         0.371899992
     0.165350005         0.898800015         0.871899962
     0.665350020         0.398799986         0.371899992
     0.665350020         0.398799986         0.871899962
     0.665350020         0.898800015         0.371899992
     0.665350020         0.898800015         0.871899962
     0.415349990         0.351200014         0.121900000
     0.415349990         0.351200014         0.621900022
     0.415349990         0.851199985         0.121900000
     0.415349990         0.851199985         0.621900022
     0.915349960         0.351200014         0.121900000
     0.915349960         0.351200014         0.621900022
     0.915349960         0.851199985         0.121900000
     0.915349960         0.851199985         0.621900022
     0.334650010         0.101199999         0.128099993
     0.334650010         0.101199999         0.628099978
     0.334650010         0.601199985         0.128099993
     0.334650010         0.601199985         0.628099978
     0.834650040         0.101199999         0.128099993
     0.834650040         0.101199999         0.628099978
     0.834650040         0.601199985         0.128099993
     0.834650040         0.601199985         0.628099978
     0.084650002         0.148800001         0.378100008
     0.084650002         0.148800001         0.878100038
     0.084650002         0.648800015         0.378100008
     0.084650002         0.648800015         0.878100038
     0.584649980         0.148800001         0.378100008
     0.584649980         0.148800001         0.878100038
     0.584649980         0.648800015         0.378100008
     0.584649980         0.648800015         0.878100038
