Co2 F4                                  
   1.00000000000000     
     4.6752728981792879   -0.0000118622727843    0.0000000506317174
     0.0000343162761070    4.6748730511184258   -0.0000003126416352
     0.0000000304183883   -0.0000002730906476    3.1760767937829590
   Co   F 
     2     4
Direct
  0.5000911118616216  0.5000243919730281  0.5000000047931152
  0.0000944911308309  0.9999758495298110  0.0000000037396788
  0.1956587263475100  0.8043708162998371  0.4999999825520973
  0.8042477275469366  0.1957677600809973  0.5000000114468506
  0.3042491240305338  0.3042269862673521  0.9999999650152986
  0.6956588190825670  0.6956341958489674  0.0000000324529594
 
  0.00000000E+00  0.00000000E+00  0.00000000E+00
  0.00000000E+00  0.00000000E+00  0.00000000E+00
  0.00000000E+00  0.00000000E+00  0.00000000E+00
  0.00000000E+00  0.00000000E+00  0.00000000E+00
  0.00000000E+00  0.00000000E+00  0.00000000E+00
  0.00000000E+00  0.00000000E+00  0.00000000E+00
