Fe2 F4                                  
   1.00000000000000     
     4.6997543309040157    0.0000000191682183   -0.0000000368597013
     0.0000000212141740    4.6997208033309601    0.0000000819190893
    -0.0000000250634288    0.0000000550763103    3.3099264694790338
   Fe   F 
     2     4
Direct
  0.4999989311506223  0.4999984782713950  0.5000000000264814
 -0.0000010665797341  0.0000015231879146 -0.0000000010166057
  0.1989349040404208  0.8010639610234318  0.4999999693944191
  0.8010661643745018  0.1989332829815092  0.5000000295386267
  0.3010661522451444  0.3010667300213474 -0.0000000153746377
  0.6989349147690446  0.6989360245144021  0.0000000174317163
 
  0.00000000E+00  0.00000000E+00  0.00000000E+00
  0.00000000E+00  0.00000000E+00  0.00000000E+00
  0.00000000E+00  0.00000000E+00  0.00000000E+00
  0.00000000E+00  0.00000000E+00  0.00000000E+00
  0.00000000E+00  0.00000000E+00  0.00000000E+00
  0.00000000E+00  0.00000000E+00  0.00000000E+00
