V2 F6                                   
   1.00000000000000     
     4.5636594102830408    0.0063985441652518    2.9124994727861426
     1.6007521220002048    4.2777044422009398    2.9125404076328549
     0.0058176159757199    0.0036239300216896    5.4142742649134759
   V    F 
     2     6
Direct
  0.5000016771192040  0.5000000040232589  0.4999993687773844
  0.0000007908497269  0.0000007068616443 -0.0000007541064968
  0.6404102720930908  0.2501437159365871  0.8594949243315143
  0.2507315242452622  0.8598417619914767  0.6398777411647756
  0.8592815880576499  0.6410119859472235  0.2493270298438597
  0.3595877080970233  0.7498567639108881  0.1405075041357254
  0.7492686893368780  0.1401555082127642  0.3601237916863312
  0.1407177502011650  0.3589895531161569  0.7506703941668988
 
  0.00000000E+00  0.00000000E+00  0.00000000E+00
  0.00000000E+00  0.00000000E+00  0.00000000E+00
  0.00000000E+00  0.00000000E+00  0.00000000E+00
  0.00000000E+00  0.00000000E+00  0.00000000E+00
  0.00000000E+00  0.00000000E+00  0.00000000E+00
  0.00000000E+00  0.00000000E+00  0.00000000E+00
  0.00000000E+00  0.00000000E+00  0.00000000E+00
  0.00000000E+00  0.00000000E+00  0.00000000E+00
