Co2 F4                                  
   1.00000000000000     
     4.6900469249525552    0.0001033258546278   -0.0000001722058998
     0.0001033973465978    4.6896134060050887   -0.0000001515846573
    -0.0000001179082385   -0.0000001054431927    3.1794693920547639
   Co   F 
     2     4
Direct
  0.5000026442858001  0.5000231040462779  0.5000000004578027
  0.0000026049518382  0.9999767740349554  0.9999999998214477
  0.1956635845165806  0.8043429969395177  0.5000000035343106
  0.8043337859686801  0.1956716834438836  0.4999999969646680
  0.3043259650581618  0.3043203313445204  0.9999999937592108
  0.6956714152189392  0.6956651101908449  0.0000000054625531
 
  0.00000000E+00  0.00000000E+00  0.00000000E+00
  0.00000000E+00  0.00000000E+00  0.00000000E+00
  0.00000000E+00  0.00000000E+00  0.00000000E+00
  0.00000000E+00  0.00000000E+00  0.00000000E+00
  0.00000000E+00  0.00000000E+00  0.00000000E+00
  0.00000000E+00  0.00000000E+00  0.00000000E+00
