Sodium trifluoromanganate(II)           
   1.00000000000000     
     5.7335520240430906   -0.0000000881128853    0.0000003420711585
    -0.0000001292313289    7.9533971243272577   -0.0000005143453020
     0.0000003286070333   -0.0000003515310821    5.4877786276948495
   Na   Mn   F 
     4     4    12
Direct
  0.0595726879139562  0.2499998096007374  0.9873112274500357
  0.9404282134028605  0.7499998189167840  0.0126888491164365
  0.4404284293604945  0.7499998358850846  0.4873111907141876
  0.5595727081513573  0.2499998580747516  0.5126886627003628
  0.5000003264527280  0.5000002628308238  0.0000000938621980
  0.0000006052911132  0.4999991660782683  0.5000002689909522
  0.4999997872881323  0.0000005606901752  0.9999997389495334
  0.0000006650945039  0.9999992891322549  0.4999996589215954
  0.4410792875793987  0.2500001303323955  0.1205686388230163
  0.5589214678487906  0.7500001472060944  0.8794314296826897
  0.0589219087136712  0.7499996256270833  0.6205686997247071
  0.9410794934222011  0.2499995824792265  0.3794315840409865
  0.1910148788864561  0.5628914660042028  0.1846275830200312
  0.8089809909940442  0.4371066058846438  0.8153729849913702
  0.3089861546768091  0.4371081184289451  0.6846275997242799
  0.6910200218560973  0.5628931526682237  0.3153729622275279
  0.8089813303254800  0.0628930209072820  0.8153726102721848
  0.1910149545013056  0.9371082509722797  0.1846272269011067
  0.6910151448670661  0.9371081254061977  0.3153720740049195
  0.3089809663735323  0.0628931728745314  0.6846268648818779
 
  0.00000000E+00  0.00000000E+00  0.00000000E+00
  0.00000000E+00  0.00000000E+00  0.00000000E+00
  0.00000000E+00  0.00000000E+00  0.00000000E+00
  0.00000000E+00  0.00000000E+00  0.00000000E+00
  0.00000000E+00  0.00000000E+00  0.00000000E+00
  0.00000000E+00  0.00000000E+00  0.00000000E+00
  0.00000000E+00  0.00000000E+00  0.00000000E+00
  0.00000000E+00  0.00000000E+00  0.00000000E+00
  0.00000000E+00  0.00000000E+00  0.00000000E+00
  0.00000000E+00  0.00000000E+00  0.00000000E+00
  0.00000000E+00  0.00000000E+00  0.00000000E+00
  0.00000000E+00  0.00000000E+00  0.00000000E+00
  0.00000000E+00  0.00000000E+00  0.00000000E+00
  0.00000000E+00  0.00000000E+00  0.00000000E+00
  0.00000000E+00  0.00000000E+00  0.00000000E+00
  0.00000000E+00  0.00000000E+00  0.00000000E+00
  0.00000000E+00  0.00000000E+00  0.00000000E+00
  0.00000000E+00  0.00000000E+00  0.00000000E+00
  0.00000000E+00  0.00000000E+00  0.00000000E+00
  0.00000000E+00  0.00000000E+00  0.00000000E+00
