Sodium trifluoromanganate(II)           
   1.00000000000000     
     5.3204625091028008    0.0000278448072365    0.0000228166744560
     0.0000384202825499    7.3765459561920430    0.0004246357878293
     0.0000223589697586    0.0002629887519795    5.2598778598639457
   Mn   F 
     4    12
Direct
  0.4999207134517855  0.5000273132337462  0.0000720167413629
 -0.0000432706389956  0.5000179338175041  0.4999573395511060
  0.4999478525096716 -0.0000187424511128  0.0000514877678024
 -0.0000576307825399 -0.0000259564893895  0.4999377275933466
  0.4688368240493848  0.2500522304721672  0.1016859816243006
  0.5312035133949800  0.7499525657417664  0.8983697448278103
  0.0312136491594389  0.7500470953033123  0.6016366671523363
  0.9688459360162317  0.2499479114007649  0.3983118205640778
  0.2125684127025673  0.5524937200674314  0.1806665325906683
  0.7874512337548060  0.4475518320051381  0.8193111076301871
  0.2874246705052855  0.4475175598884061  0.6806347539218913
  0.7126016023446506  0.5525034917029746  0.3193779189650963
  0.7874269165711821  0.0524892586780121  0.8193624299138941
  0.2126109550939309  0.9474920555702464  0.1806196228453888
  0.7125930867089683  0.9475099204736385  0.3193131287347373
  0.2874555651586546  0.0524418105853941  0.6806916745759868
 
  0.00000000E+00  0.00000000E+00  0.00000000E+00
  0.00000000E+00  0.00000000E+00  0.00000000E+00
  0.00000000E+00  0.00000000E+00  0.00000000E+00
  0.00000000E+00  0.00000000E+00  0.00000000E+00
  0.00000000E+00  0.00000000E+00  0.00000000E+00
  0.00000000E+00  0.00000000E+00  0.00000000E+00
  0.00000000E+00  0.00000000E+00  0.00000000E+00
  0.00000000E+00  0.00000000E+00  0.00000000E+00
  0.00000000E+00  0.00000000E+00  0.00000000E+00
  0.00000000E+00  0.00000000E+00  0.00000000E+00
  0.00000000E+00  0.00000000E+00  0.00000000E+00
  0.00000000E+00  0.00000000E+00  0.00000000E+00
  0.00000000E+00  0.00000000E+00  0.00000000E+00
  0.00000000E+00  0.00000000E+00  0.00000000E+00
  0.00000000E+00  0.00000000E+00  0.00000000E+00
  0.00000000E+00  0.00000000E+00  0.00000000E+00
