Sodium chromium tetrafluoride           
   1.00000000000000     
     7.7949804567792276    0.0000029041304350    0.0078126150335163
     0.0000014611852669    5.2642704530970033   -0.0000042801859737
    -1.4058751374933645   -0.0000066979092029    7.2277964493596656
   Na   Cr   F 
     4     4    16
Direct
  0.3656495354012890  0.7834080354173261  0.1089730049035387
  0.6343396462822384  0.2165990015098478  0.8909907798779912
  0.6343396871877857  0.2834005711313404  0.3909909734763905
  0.3656498821772460  0.7165920443266518  0.6089732042955386
  0.1708898320229121  0.2589199514888049  0.2971038548879592
  0.8291188996443388  0.7410931843318558  0.7029102126964258
  0.8291202622781191  0.7589079050310965  0.2029100399508288
  0.1708893695437686  0.2410776214469951  0.7971066108763831
  0.1693961158260631  0.1353755060937593  0.0483253173055971
  0.8305906092337468  0.8647567601728323  0.9516764240718507
  0.8305902677313129  0.6352424077166868  0.4516761864516378
  0.1693965160198088  0.3646269168468357  0.5483258932138529
  0.0399197438384831  0.5629545424444434  0.2025978477045111
  0.9600746318510660  0.4371330780834575  0.7974779465468094
  0.9600750934512168  0.0628664128685523  0.2974785328398912
  0.0399204560470250  0.9370454508275140  0.7025974226655959
  0.3728075853073811  0.4607778290157093  0.3105651567810955
  0.6271190761854153  0.5393074236289601  0.6894385752812280
  0.6271185376164251  0.9606924548078509  0.1894379859490736
  0.3728067953554765  0.0392230002313307  0.8105644390348369
  0.3129866978632134  0.9800258761625463  0.3755784610268958
  0.6871073807235670  0.0201012503687727  0.6243617523832929
  0.6871066321328974  0.4798978948070395  0.1243617444163233
  0.3129868562792055  0.5199748812397907  0.8755776523624565
 
  0.00000000E+00  0.00000000E+00  0.00000000E+00
  0.00000000E+00  0.00000000E+00  0.00000000E+00
  0.00000000E+00  0.00000000E+00  0.00000000E+00
  0.00000000E+00  0.00000000E+00  0.00000000E+00
  0.00000000E+00  0.00000000E+00  0.00000000E+00
  0.00000000E+00  0.00000000E+00  0.00000000E+00
  0.00000000E+00  0.00000000E+00  0.00000000E+00
  0.00000000E+00  0.00000000E+00  0.00000000E+00
  0.00000000E+00  0.00000000E+00  0.00000000E+00
  0.00000000E+00  0.00000000E+00  0.00000000E+00
  0.00000000E+00  0.00000000E+00  0.00000000E+00
  0.00000000E+00  0.00000000E+00  0.00000000E+00
  0.00000000E+00  0.00000000E+00  0.00000000E+00
  0.00000000E+00  0.00000000E+00  0.00000000E+00
  0.00000000E+00  0.00000000E+00  0.00000000E+00
  0.00000000E+00  0.00000000E+00  0.00000000E+00
  0.00000000E+00  0.00000000E+00  0.00000000E+00
  0.00000000E+00  0.00000000E+00  0.00000000E+00
  0.00000000E+00  0.00000000E+00  0.00000000E+00
  0.00000000E+00  0.00000000E+00  0.00000000E+00
  0.00000000E+00  0.00000000E+00  0.00000000E+00
  0.00000000E+00  0.00000000E+00  0.00000000E+00
  0.00000000E+00  0.00000000E+00  0.00000000E+00
  0.00000000E+00  0.00000000E+00  0.00000000E+00
