Fe2 F6                                  
   1.00000000000000     
     4.5537374254998886    0.0000862137297958    2.8522719572108075
     1.5790885942598754    4.2711831219838405    2.8522718957057345
     0.0001241523762485    0.0000863954668442    5.3732655359640527
   Fe   F 
     2     6
Direct
  0.5000000044812485  0.4999999982095897  0.4999999941533111
 -0.0000000044204356  0.0000000341082018 -0.0000000235157638
  0.6604267100921463  0.2500000767461970  0.8395731449672104
  0.2500000667361534  0.8395731584985308  0.6604267101659577
  0.8395731302624272  0.6604267046418053  0.2500000871806549
  0.3395733086261608  0.7499999121220255  0.1604268581916350
  0.7499999331617305  0.1604268546649240  0.3395732853293417
  0.1604268510605690  0.3395732610087260  0.7499999435276531
 
  0.00000000E+00  0.00000000E+00  0.00000000E+00
  0.00000000E+00  0.00000000E+00  0.00000000E+00
  0.00000000E+00  0.00000000E+00  0.00000000E+00
  0.00000000E+00  0.00000000E+00  0.00000000E+00
  0.00000000E+00  0.00000000E+00  0.00000000E+00
  0.00000000E+00  0.00000000E+00  0.00000000E+00
  0.00000000E+00  0.00000000E+00  0.00000000E+00
  0.00000000E+00  0.00000000E+00  0.00000000E+00
