Fe2 F6
1.0
4.544256 0.000000 2.846187
1.575720 4.262320 2.846187
0.000000 0.000000 5.362000
Fe F
2 6
direct
0.500000 0.500000 0.500000 Fe3+
0.000000 0.000000 0.000000 Fe3+
0.660700 0.250000 0.839300 F-
0.250000 0.839300 0.660700 F-
0.839300 0.660700 0.250000 F-
0.339300 0.750000 0.160700 F-
0.750000 0.160700 0.339300 F-
0.160700 0.339300 0.750000 F-
