Co2 F6                                  
   1.00000000000000     
     4.3839605716670640    0.0136383276218286    2.8995107074185307
     1.5678634130254423    4.1623261465418473    2.8862609496862572
     0.0384648057715199    0.0103794155748091    5.2604421820816771
   Co   F 
     2     6
Direct
  0.4999985951186474  0.4999962886760017  0.5000204195771829
  0.0000241992999932  0.9999953374215025  0.9999800395356218
  0.6384979460795321  0.2498954478190214  0.8614127060936667
  0.2412082814761760  0.8647294869623963  0.6469672876128101
  0.8531594129931790  0.6353870524610983  0.2585040438563908
  0.3614898004572993  0.7500989951264785  0.1385961668993190
  0.7587928756991928  0.1352834644817449  0.3530136636517653
  0.1468288888759801  0.3646139270517565  0.7415056727732363
 
  0.00000000E+00  0.00000000E+00  0.00000000E+00
  0.00000000E+00  0.00000000E+00  0.00000000E+00
  0.00000000E+00  0.00000000E+00  0.00000000E+00
  0.00000000E+00  0.00000000E+00  0.00000000E+00
  0.00000000E+00  0.00000000E+00  0.00000000E+00
  0.00000000E+00  0.00000000E+00  0.00000000E+00
  0.00000000E+00  0.00000000E+00  0.00000000E+00
  0.00000000E+00  0.00000000E+00  0.00000000E+00
