Mn2 F6                                  
   1.00000000000000     
     9.8838776159528567   -0.0003292044674703   -0.0001232965932370
     2.4708249124579797    4.4168647371591581   -0.0116489068483705
     2.4708740873471795    1.2482535118670304    4.4938675891513933
   Mn   F 
     4    12
Direct
  0.2499991067286159  0.4999978812057931  0.5000009868989695
  0.7500011186839916  0.4999991194058866  0.4999977135456893
 -0.0000018434631818  0.0000024920381629  0.0000003006392682
  0.4999994726713262 -0.0000002549299644  0.0000006518212392
  0.1884947894503830  0.7500014060352556  0.7499883190046218
  0.6884946197798738  0.7500018841516576  0.7499894788729664
  0.3115041418437780  0.2499984100970755  0.2500117747752442
  0.8115042960108402  0.2499983071553138  0.2500110979932034
  0.3828249600605465  0.1103851837082905  0.7650919000480593
  0.8828249141886350  0.1103847352851529  0.7650913656557916
  0.0705677530579723  0.3896002546787963  0.7349076030485679
  0.5705674659780461  0.3895999962263570  0.7349081125183643
  0.1171761787839734  0.8896093324645175  0.2349138645431793
  0.6171761977292207  0.8896099434805321  0.2349136714575452
  0.4294336655371511  0.6104058207607919  0.2650863728193459
  0.9294331029588231  0.6104054582363715  0.2650867863579441
 
  0.00000000E+00  0.00000000E+00  0.00000000E+00
  0.00000000E+00  0.00000000E+00  0.00000000E+00
  0.00000000E+00  0.00000000E+00  0.00000000E+00
  0.00000000E+00  0.00000000E+00  0.00000000E+00
  0.00000000E+00  0.00000000E+00  0.00000000E+00
  0.00000000E+00  0.00000000E+00  0.00000000E+00
  0.00000000E+00  0.00000000E+00  0.00000000E+00
  0.00000000E+00  0.00000000E+00  0.00000000E+00
  0.00000000E+00  0.00000000E+00  0.00000000E+00
  0.00000000E+00  0.00000000E+00  0.00000000E+00
  0.00000000E+00  0.00000000E+00  0.00000000E+00
  0.00000000E+00  0.00000000E+00  0.00000000E+00
  0.00000000E+00  0.00000000E+00  0.00000000E+00
  0.00000000E+00  0.00000000E+00  0.00000000E+00
  0.00000000E+00  0.00000000E+00  0.00000000E+00
  0.00000000E+00  0.00000000E+00  0.00000000E+00
