Mn2 F6
1.0
       10.0740003586         0.0000000000         0.0000000000
        2.5184995880         4.4520000489         0.0000000000
        2.5184996656         1.2697117533         4.4775418716
   Mn    F
    4   12
Direct
     0.250000000         0.500000000         0.500000000
     0.750000000         0.500000000         0.500000000
     0.000000000         0.000000000         0.000000000
     0.500000000         0.000000000         0.000000000
     0.183500007         0.750000000         0.750000000
     0.683499992         0.750000000         0.750000000
     0.316500008         0.250000000         0.250000000
     0.816500008         0.250000000         0.250000000
     0.384000003         0.123999998         0.768000007
     0.884000003         0.123999998         0.768000007
     0.079999998         0.375999987         0.731999993
     0.579999983         0.375999987         0.731999993
     0.115999997         0.875999987         0.231999993
     0.615999997         0.875999987         0.231999993
     0.419999987         0.624000013         0.268000007
     0.919999957         0.624000013         0.268000007
