Sodium vanadium trifluoride             
   1.00000000000000     
     4.1161014066159369   -0.0000000077122238    0.0000001510341184
     0.0000000051636959    4.1160206925937590   -0.0000000723385034
    -0.0000002528288579    0.0000002653557681    4.1159760770440066
   Na   V    F 
     1     1     3
Direct
  0.0000073619529459  0.9999999905836106  0.0000000018645068
  0.5000507967978862  0.5000000272570517  0.4999999749557063
  0.5000098239695419  0.4999999817466190  0.0000000044890172
  0.9998992096863049  0.4999999969431741  0.5000000079932789
  0.5000328075933211  0.0000000034695375  0.5000000106974909
 
  0.00000000E+00  0.00000000E+00  0.00000000E+00
  0.00000000E+00  0.00000000E+00  0.00000000E+00
  0.00000000E+00  0.00000000E+00  0.00000000E+00
  0.00000000E+00  0.00000000E+00  0.00000000E+00
  0.00000000E+00  0.00000000E+00  0.00000000E+00
