Mn2 F6                                  
   1.00000000000000     
     9.9196078174882221   -0.0005866788557475   -0.0001111521829888
     2.4796451138861810    4.4488076326469255    0.0012309197644581
     2.4797788649436177    1.2702899858256247    4.4973847057874083
   Mn   F 
     4    12
Direct
  0.2500154401858978  0.5000194101495410  0.4999682660873859
  0.7500085350703785  0.5000191595662073  0.4999764855604028
  0.0000117161120485  0.9999812113843234  0.0000294604396132
  0.5000105789774452  0.9999826165973147  0.0000286669367782
  0.1889516396415871  0.7499714276026808  0.7499742244945438
  0.6889528409981978  0.7499697494660040  0.7499723403380685
  0.3110485652248016  0.2500316359037882  0.2500251646197000
  0.8110494307688967  0.2500272949315203  0.2500227910950557
  0.3822308946433921  0.1125580601445435  0.7625772426257313
  0.8822310812258962  0.1125577799557220  0.7625772044130130
  0.0697959533383710  0.3873925599026222  0.7374479508228475
  0.5697987163941463  0.3873939677481246  0.7374444489555927
  0.1177577991635559  0.8874533708511549  0.2374033364601900
  0.6177585886826407  0.8874524949652880  0.2374042880057914
  0.4301878489215127  0.6125940038701287  0.2625756416007832
  0.9301903106512341  0.6125952269610551  0.2625724875445030
 
  0.00000000E+00  0.00000000E+00  0.00000000E+00
  0.00000000E+00  0.00000000E+00  0.00000000E+00
  0.00000000E+00  0.00000000E+00  0.00000000E+00
  0.00000000E+00  0.00000000E+00  0.00000000E+00
  0.00000000E+00  0.00000000E+00  0.00000000E+00
  0.00000000E+00  0.00000000E+00  0.00000000E+00
  0.00000000E+00  0.00000000E+00  0.00000000E+00
  0.00000000E+00  0.00000000E+00  0.00000000E+00
  0.00000000E+00  0.00000000E+00  0.00000000E+00
  0.00000000E+00  0.00000000E+00  0.00000000E+00
  0.00000000E+00  0.00000000E+00  0.00000000E+00
  0.00000000E+00  0.00000000E+00  0.00000000E+00
  0.00000000E+00  0.00000000E+00  0.00000000E+00
  0.00000000E+00  0.00000000E+00  0.00000000E+00
  0.00000000E+00  0.00000000E+00  0.00000000E+00
  0.00000000E+00  0.00000000E+00  0.00000000E+00
