Cr4 F16                                 
   1.00000000000000     
     8.1175731828300535   -0.0001089149845642   -0.0000014304742888
    -0.0001087108262544    8.1133723831953315   -0.0000023794404864
    -0.0000003785654727   -0.0000009164446079    3.7850132136045200
   Cr   F 
     4    16
Direct
  0.3645358828633024  0.6354473692652236  0.5000000148448196
  0.6354871177187948  0.3645709021105593  0.5000000193667281
  0.1354900884875241  0.1354313108768934  0.0000000490623668
  0.8645353800777431  0.8645517853062685  0.9999999540007571
  0.6011101550716128  0.6012243741356916  0.4999998509712215
  0.3988754701361626  0.3988234081571508  0.5000000781745021
  0.8988801162501009  0.1011747171505360 -0.0000000257238331
  0.1011110825402140  0.8987792087810502  0.0000000208901367
  0.8736194610349783  0.8736503962343295  0.4999999434086143
  0.1263881203572452  0.1263178604510007  0.5000000485061694
  0.6263867970999665  0.3736863578149103  0.9999999997268755
  0.3736168015390890  0.6263442823527235 -0.0000000036732982
  0.1549182873112492  0.6111154746954031  0.4999998500617285
  0.8450776391736143  0.3888801518736295  0.5000002886854311
  0.3450799860953295  0.1111248079754219  0.0000001281217280
  0.6549189058399197  0.8888777961555778  0.9999999235146559
  0.6112177593115181  0.1548379843086528  0.4999997412429283
  0.3887624291474410  0.8451920069977285  0.5000001657765695
  0.1112300482002196  0.3451671754278292 -0.0000000028765681
  0.8887584717439890  0.6548026299294127  0.9999999559184671
 
  0.00000000E+00  0.00000000E+00  0.00000000E+00
  0.00000000E+00  0.00000000E+00  0.00000000E+00
  0.00000000E+00  0.00000000E+00  0.00000000E+00
  0.00000000E+00  0.00000000E+00  0.00000000E+00
  0.00000000E+00  0.00000000E+00  0.00000000E+00
  0.00000000E+00  0.00000000E+00  0.00000000E+00
  0.00000000E+00  0.00000000E+00  0.00000000E+00
  0.00000000E+00  0.00000000E+00  0.00000000E+00
  0.00000000E+00  0.00000000E+00  0.00000000E+00
  0.00000000E+00  0.00000000E+00  0.00000000E+00
  0.00000000E+00  0.00000000E+00  0.00000000E+00
  0.00000000E+00  0.00000000E+00  0.00000000E+00
  0.00000000E+00  0.00000000E+00  0.00000000E+00
  0.00000000E+00  0.00000000E+00  0.00000000E+00
  0.00000000E+00  0.00000000E+00  0.00000000E+00
  0.00000000E+00  0.00000000E+00  0.00000000E+00
  0.00000000E+00  0.00000000E+00  0.00000000E+00
  0.00000000E+00  0.00000000E+00  0.00000000E+00
  0.00000000E+00  0.00000000E+00  0.00000000E+00
  0.00000000E+00  0.00000000E+00  0.00000000E+00
