Fe2 F6                                  
   1.00000000000000     
     4.5442559999999999    0.0000000000000000    2.8461870000000000
     1.5757200000000000    4.2623199999999999    2.8461870000000000
     0.0000000000000000    0.0000000000000000    5.3620000000000001
   Fe   F 
     2     6
Direct
  0.5000000000000000  0.5000000000000000  0.5000000000000000
  0.0000000000000000  0.0000000000000000  0.0000000000000000
  0.6606999999999985  0.2500000000000000  0.8393000000000015
  0.2500000000000000  0.8393000000000015  0.6606999999999985
  0.8393000000000015  0.6606999999999985  0.2500000000000000
  0.3393000000000015  0.7500000000000000  0.1606999999999985
  0.7500000000000000  0.1606999999999985  0.3393000000000015
  0.1606999999999985  0.3393000000000015  0.7500000000000000
 
  0.00000000E+00  0.00000000E+00  0.00000000E+00
  0.00000000E+00  0.00000000E+00  0.00000000E+00
  0.00000000E+00  0.00000000E+00  0.00000000E+00
  0.00000000E+00  0.00000000E+00  0.00000000E+00
  0.00000000E+00  0.00000000E+00  0.00000000E+00
  0.00000000E+00  0.00000000E+00  0.00000000E+00
  0.00000000E+00  0.00000000E+00  0.00000000E+00
  0.00000000E+00  0.00000000E+00  0.00000000E+00
