Ti12 F48                                
   1.00000000000000     
    22.4347266647892560   -0.0000000378764956   -0.0000013670848812
     0.0000000051449506    3.8694878198176066   -0.0000000001511177
    -0.0000005487348036   -0.0000000021426575    9.5080991952760030
   Ti   F 
    12    48
Direct
  0.7352231590877025  0.2500000000163425  0.8033400044878718
  0.2352231561759126  0.2499999999411955  0.6966600514206505
  0.2647768899814196  0.7500000001199894  0.1966601299439006
  0.7647768896656046  0.7500000000062599  0.3033398121776045
  0.0977775824035163  0.2500000000505906  0.4461768792061136
  0.5977775821458096  0.2500000002742837  0.0538231260650193
  0.9022224108386538  0.7500000001623306  0.5538231904183348
  0.4022224052227514  0.7499999993574917  0.9461768065038854
  0.5743107637906277  0.2499999998272173  0.6477821302513576
  0.0743107671954917  0.2500000001909939  0.8522178327350218
  0.4256891374731566  0.7500000000102318  0.3522176353412547
  0.9256891404467780  0.7500000000400249  0.1477823934767599
  0.2725400688614599  0.2500000000010800  0.1948793174565964
  0.7725400724840199  0.2500000001327862  0.3051206403357938
  0.7274597964142373  0.7500000002173195  0.8051206848382861
  0.2274597948163404  0.7500000002907043  0.6948793587199233
  0.9208601225783326  0.2499999999759908  0.1643017392309432
  0.4208601333912227  0.2500000002258886  0.3356982595196882
  0.0791396543371121  0.7500000001164651  0.8356990188316828
  0.5791396424322386  0.7500000004889955  0.6643009830841962
  0.0238701562821717  0.2499999993645474  0.3839866012542643
  0.5238701602531890  0.2500000001007905  0.1160133869669480
  0.9761299259336269  0.7499999998410019  0.6160134558976011
  0.4761299222083508  0.7500000000264180  0.8839865560205098
  0.5910249331872777  0.2499999999151115  0.4686482028411163
  0.0910248983953821  0.2500000004236469  0.0313518059646469
  0.4089747494806915  0.7500000004277254  0.5313513509613585
  0.9089747829658350  0.7499999991664410  0.9686486347687833
  0.6608703878131976  0.2500000005061409  0.6900429110408552
  0.1608703883483784  0.2500000002746745  0.8099571380804278
  0.3391296794824541  0.7499999999474483  0.3099565253776291
  0.8391296785510463  0.7500000001210765  0.1900434256193293
  0.9000330871554141  0.2499999996346887  0.5373578526922529
  0.4000330794311964  0.2499999998291500  0.9626421673442209
  0.0999667634372159  0.7499999990704751  0.4626418406222612
  0.5999667697180726  0.7500000003453735  0.0373581384110864
  0.7757063753922466  0.2499999998925091  0.6448222767189691
  0.2757063747816133  0.2500000001802789  0.8551778219317541
  0.2242937814703438  0.7500000000904734  0.3551779756913760
  0.7242937831043577  0.7499999998657074  0.1448219234190589
  0.1366230328434881  0.2499999992443520  0.2861811967480818
  0.6366230326569422  0.2500000005398064  0.2138188259258840
  0.8633771390388745  0.7500000000609504  0.7138189520268909
  0.3633771394334246  0.7499999995769357  0.7861810281475812
  0.6757704828128368  0.2499999999021512  0.9554873281039349
  0.1757704872557397  0.2499999996621298  0.5445127193304558
  0.3242295759792171  0.7499999999233893  0.0445126672930343
  0.8242295732813361  0.7499999998231317  0.4554872858960692
  0.7932280389796773  0.2500000006249152  0.9272783546047449
  0.2932280446893571  0.2500000001726974  0.5727217680376526
  0.2067718806708925  0.7499999996759996  0.0727213149185530
  0.7067718775584098  0.7500000001663238  0.4272785676150903
  0.4960475868612946  0.2500000006252705  0.6362272870102927
  0.9960475890162144  0.2499999999952536  0.8637725545655286
  0.5039524621132827  0.7499999998576286  0.3637740545402011
  0.0039524611258699  0.7499999999389502  0.1362261072656992
  0.0698280869078332  0.2499999996375450  0.6430291091263669
  0.5698280721897078  0.2500000002545590  0.8569708698353793
  0.9301722876576335  0.7499999998934612  0.3569710622232805
  0.4301723017935046  0.7499999999546745  0.1430289611159594
 
  0.00000000E+00  0.00000000E+00  0.00000000E+00
  0.00000000E+00  0.00000000E+00  0.00000000E+00
  0.00000000E+00  0.00000000E+00  0.00000000E+00
  0.00000000E+00  0.00000000E+00  0.00000000E+00
  0.00000000E+00  0.00000000E+00  0.00000000E+00
  0.00000000E+00  0.00000000E+00  0.00000000E+00
  0.00000000E+00  0.00000000E+00  0.00000000E+00
  0.00000000E+00  0.00000000E+00  0.00000000E+00
  0.00000000E+00  0.00000000E+00  0.00000000E+00
  0.00000000E+00  0.00000000E+00  0.00000000E+00
  0.00000000E+00  0.00000000E+00  0.00000000E+00
  0.00000000E+00  0.00000000E+00  0.00000000E+00
  0.00000000E+00  0.00000000E+00  0.00000000E+00
  0.00000000E+00  0.00000000E+00  0.00000000E+00
  0.00000000E+00  0.00000000E+00  0.00000000E+00
  0.00000000E+00  0.00000000E+00  0.00000000E+00
  0.00000000E+00  0.00000000E+00  0.00000000E+00
  0.00000000E+00  0.00000000E+00  0.00000000E+00
  0.00000000E+00  0.00000000E+00  0.00000000E+00
  0.00000000E+00  0.00000000E+00  0.00000000E+00
  0.00000000E+00  0.00000000E+00  0.00000000E+00
  0.00000000E+00  0.00000000E+00  0.00000000E+00
  0.00000000E+00  0.00000000E+00  0.00000000E+00
  0.00000000E+00  0.00000000E+00  0.00000000E+00
  0.00000000E+00  0.00000000E+00  0.00000000E+00
  0.00000000E+00  0.00000000E+00  0.00000000E+00
  0.00000000E+00  0.00000000E+00  0.00000000E+00
  0.00000000E+00  0.00000000E+00  0.00000000E+00
  0.00000000E+00  0.00000000E+00  0.00000000E+00
  0.00000000E+00  0.00000000E+00  0.00000000E+00
  0.00000000E+00  0.00000000E+00  0.00000000E+00
  0.00000000E+00  0.00000000E+00  0.00000000E+00
  0.00000000E+00  0.00000000E+00  0.00000000E+00
  0.00000000E+00  0.00000000E+00  0.00000000E+00
  0.00000000E+00  0.00000000E+00  0.00000000E+00
  0.00000000E+00  0.00000000E+00  0.00000000E+00
  0.00000000E+00  0.00000000E+00  0.00000000E+00
  0.00000000E+00  0.00000000E+00  0.00000000E+00
  0.00000000E+00  0.00000000E+00  0.00000000E+00
  0.00000000E+00  0.00000000E+00  0.00000000E+00
  0.00000000E+00  0.00000000E+00  0.00000000E+00
  0.00000000E+00  0.00000000E+00  0.00000000E+00
  0.00000000E+00  0.00000000E+00  0.00000000E+00
  0.00000000E+00  0.00000000E+00  0.00000000E+00
  0.00000000E+00  0.00000000E+00  0.00000000E+00
  0.00000000E+00  0.00000000E+00  0.00000000E+00
  0.00000000E+00  0.00000000E+00  0.00000000E+00
  0.00000000E+00  0.00000000E+00  0.00000000E+00
  0.00000000E+00  0.00000000E+00  0.00000000E+00
  0.00000000E+00  0.00000000E+00  0.00000000E+00
  0.00000000E+00  0.00000000E+00  0.00000000E+00
  0.00000000E+00  0.00000000E+00  0.00000000E+00
  0.00000000E+00  0.00000000E+00  0.00000000E+00
  0.00000000E+00  0.00000000E+00  0.00000000E+00
  0.00000000E+00  0.00000000E+00  0.00000000E+00
  0.00000000E+00  0.00000000E+00  0.00000000E+00
  0.00000000E+00  0.00000000E+00  0.00000000E+00
  0.00000000E+00  0.00000000E+00  0.00000000E+00
  0.00000000E+00  0.00000000E+00  0.00000000E+00
  0.00000000E+00  0.00000000E+00  0.00000000E+00
