Ti12 F48
1.0
22.811000 0.000000 0.000000
0.000000 3.848000 0.000000
0.000000 0.000000 9.568000
Ti F
12 48
direct
0.732950 0.250000 0.804800 Ti4+
0.232950 0.250000 0.695200 Ti4+
0.267050 0.750000 0.195200 Ti4+
0.767050 0.750000 0.304800 Ti4+
0.098240 0.250000 0.448600 Ti4+
0.598240 0.250000 0.051400 Ti4+
0.901760 0.750000 0.551400 Ti4+
0.401760 0.750000 0.948600 Ti4+
0.575640 0.250000 0.650100 Ti4+
0.075640 0.250000 0.849900 Ti4+
0.424360 0.750000 0.349900 Ti4+
0.924360 0.750000 0.150100 Ti4+
0.274500 0.250000 0.193700 F-
0.774500 0.250000 0.306300 F-
0.725500 0.750000 0.806300 F-
0.225500 0.750000 0.693700 F-
0.919800 0.250000 0.165800 F-
0.419800 0.250000 0.334200 F-
0.080200 0.750000 0.834200 F-
0.580200 0.750000 0.665800 F-
0.026900 0.250000 0.390400 F-
0.526900 0.250000 0.109600 F-
0.973100 0.750000 0.609600 F-
0.473100 0.750000 0.890400 F-
0.591600 0.250000 0.476100 F-
0.091600 0.250000 0.023900 F-
0.408400 0.750000 0.523900 F-
0.908400 0.750000 0.976100 F-
0.660000 0.250000 0.692900 F-
0.160000 0.250000 0.807100 F-
0.340000 0.750000 0.307100 F-
0.840000 0.750000 0.192900 F-
0.899000 0.250000 0.534700 F-
0.399000 0.250000 0.965300 F-
0.101000 0.750000 0.465300 F-
0.601000 0.750000 0.034700 F-
0.772100 0.250000 0.650600 F-
0.272100 0.250000 0.849400 F-
0.227900 0.750000 0.349400 F-
0.727900 0.750000 0.150600 F-
0.133900 0.250000 0.290700 F-
0.633900 0.250000 0.209300 F-
0.866100 0.750000 0.709300 F-
0.366100 0.750000 0.790700 F-
0.675200 0.250000 0.956500 F-
0.175200 0.250000 0.543500 F-
0.324800 0.750000 0.043500 F-
0.824800 0.750000 0.456500 F-
0.789400 0.250000 0.923200 F-
0.289400 0.250000 0.576800 F-
0.210600 0.750000 0.076800 F-
0.710600 0.750000 0.423200 F-
0.500400 0.250000 0.639700 F-
0.000400 0.250000 0.860300 F-
0.499600 0.750000 0.360300 F-
0.999600 0.750000 0.139700 F-
0.071500 0.250000 0.643800 F-
0.571500 0.250000 0.856200 F-
0.928500 0.750000 0.356200 F-
0.428500 0.750000 0.143800 F-
