Mn8 F32                                 
   1.00000000000000     
     0.0015262543162113   -0.0020591063511734   -5.9303970228170630
    -6.2763894684866903   -6.2800766334413245   -2.9648163604113766
    -6.2782484934030851    6.2801172278479864   -2.9611594204304814
   Mn   F 
     8    32
Direct
  0.1149151642185657  0.7406126441691256  0.5003821914840501
  0.3552921198220602  0.7598946933571682  0.9998353891731853
  0.6127753772461162  0.0007140997842114  0.7404385474270683
  0.3558783275455326  0.4996325766649434  0.7593151312057955
  0.8849137117938142  0.2593941919273846  0.4995854677222979
  0.6447649100866144  0.2400978807411889  0.0001708807846015
  0.3872698263330179  0.9992619197834784  0.2595856343046279
  0.6440855772041800  0.5003971544896473  0.2407109280317172
  0.3034665825195404  0.5925679322944788  0.3559906158218666
  0.2528351428430469  0.9074161798152005  0.1442449666802474
  0.6598523215862571  0.1442146656869596  0.5925745274718750
  0.3981529930734524  0.3554521560327117  0.9067742652131514
  0.6964048126586917  0.4074634744755770  0.6439078604185084
  0.7472834175575898  0.0926021545493256  0.8556654386275611
  0.3403280301942928  0.8555659960558870  0.4072177837550370
  0.6020801630690897  0.6443809476739162  0.0930276921349247
  0.5078257148521459  0.3869981651846501  0.1477608875156804
  0.0442554033396547  0.1126321216663442  0.3521762712188234
  0.6549890094066129  0.3525429332984800  0.3869288851728925
  0.3958024847204484  0.1468820221268459  0.1130789011072935
  0.4921544846746002  0.6129355263750398  0.8522968689818384
  0.9559015808918261  0.8872485617969730  0.6478426998567315
  0.3448337713172478  0.6475050723567222  0.6131126074039983
  0.6042702345559761  0.8531410506062258  0.8869839859774089
  0.9316014276054574  0.8331529958029691  0.3905275684882525
  0.1551385668294358  0.6671642285090513  0.1093786059692903
  0.3204122170356243  0.1104607669992319  0.8333269234239467
  0.2654512617584643  0.3901385320954418  0.6662366766004837
  0.0682473332128950  0.1670116391794778  0.6095351023834112
  0.8447251836927592  0.3329803366859352  0.8907442228442406
  0.6796748600890794  0.8897180603579002  0.1664883554993608
  0.7344236088114684  0.6101111346430059  0.3335914654229555
  0.9265229497760217  0.6337826245342484  0.5926951214087595
  0.1522197305831057  0.8663620870245836  0.9072820883418515
  0.5171552545384941  0.9074616230264922  0.6341146427881910
  0.0608851306129807  0.5921985757434953  0.8662880562348647
  0.0733268208099744  0.3662537860168200  0.4073093945921329
  0.8478467278403912  0.1336877742120706  0.0927185602169587
  0.4828413521128283  0.0923223035799552  0.3661281559077381
  0.9391964131806390  0.4076394106768433  0.1340266323863872
 
  0.00000000E+00  0.00000000E+00  0.00000000E+00
  0.00000000E+00  0.00000000E+00  0.00000000E+00
  0.00000000E+00  0.00000000E+00  0.00000000E+00
  0.00000000E+00  0.00000000E+00  0.00000000E+00
  0.00000000E+00  0.00000000E+00  0.00000000E+00
  0.00000000E+00  0.00000000E+00  0.00000000E+00
  0.00000000E+00  0.00000000E+00  0.00000000E+00
  0.00000000E+00  0.00000000E+00  0.00000000E+00
  0.00000000E+00  0.00000000E+00  0.00000000E+00
  0.00000000E+00  0.00000000E+00  0.00000000E+00
  0.00000000E+00  0.00000000E+00  0.00000000E+00
  0.00000000E+00  0.00000000E+00  0.00000000E+00
  0.00000000E+00  0.00000000E+00  0.00000000E+00
  0.00000000E+00  0.00000000E+00  0.00000000E+00
  0.00000000E+00  0.00000000E+00  0.00000000E+00
  0.00000000E+00  0.00000000E+00  0.00000000E+00
  0.00000000E+00  0.00000000E+00  0.00000000E+00
  0.00000000E+00  0.00000000E+00  0.00000000E+00
  0.00000000E+00  0.00000000E+00  0.00000000E+00
  0.00000000E+00  0.00000000E+00  0.00000000E+00
  0.00000000E+00  0.00000000E+00  0.00000000E+00
  0.00000000E+00  0.00000000E+00  0.00000000E+00
  0.00000000E+00  0.00000000E+00  0.00000000E+00
  0.00000000E+00  0.00000000E+00  0.00000000E+00
  0.00000000E+00  0.00000000E+00  0.00000000E+00
  0.00000000E+00  0.00000000E+00  0.00000000E+00
  0.00000000E+00  0.00000000E+00  0.00000000E+00
  0.00000000E+00  0.00000000E+00  0.00000000E+00
  0.00000000E+00  0.00000000E+00  0.00000000E+00
  0.00000000E+00  0.00000000E+00  0.00000000E+00
  0.00000000E+00  0.00000000E+00  0.00000000E+00
  0.00000000E+00  0.00000000E+00  0.00000000E+00
  0.00000000E+00  0.00000000E+00  0.00000000E+00
  0.00000000E+00  0.00000000E+00  0.00000000E+00
  0.00000000E+00  0.00000000E+00  0.00000000E+00
  0.00000000E+00  0.00000000E+00  0.00000000E+00
  0.00000000E+00  0.00000000E+00  0.00000000E+00
  0.00000000E+00  0.00000000E+00  0.00000000E+00
  0.00000000E+00  0.00000000E+00  0.00000000E+00
  0.00000000E+00  0.00000000E+00  0.00000000E+00
