Ni2 F4                                  
   1.00000000000000     
     4.6346542620958751    0.0000003304050861   -0.0000000618938722
     0.0000003286555523    4.6346329756240765    0.0000000379894909
    -0.0000000404663880    0.0000000257858253    3.0583700866130106
   Ni   F 
     2     4
Direct
  0.4999975878862823  0.5000063124071973  0.5000000045621673
  0.9999975834529444  0.9999936802695081  0.9999999958445881
  0.1974796265294743  0.8025112085745724  0.5000000014513095
  0.8025227872223847  0.1974843312555924  0.4999999953030970
  0.3025227710794745  0.3025156548180722  0.9999999568993033
  0.6974796438294327  0.6974888126750647  0.0000000459395347
 
  0.00000000E+00  0.00000000E+00  0.00000000E+00
  0.00000000E+00  0.00000000E+00  0.00000000E+00
  0.00000000E+00  0.00000000E+00  0.00000000E+00
  0.00000000E+00  0.00000000E+00  0.00000000E+00
  0.00000000E+00  0.00000000E+00  0.00000000E+00
  0.00000000E+00  0.00000000E+00  0.00000000E+00
