V2 F6                                   
   1.00000000000000     
     4.5665205358927281   -0.0045486228407313    2.9002963587091455
     1.5945141926824140    4.2784256890919607    2.9009117731172620
     0.0030815195587786    0.0022135634226608    5.4068161730781581
   V    F 
     2     6
Direct
  0.4998780488681664  0.5000112355615415  0.4999908729318132
 -0.0000070439903282 -0.0001211202545508  0.0000220522831765
  0.6409589358889497  0.2501081275170698  0.8587509183154272
  0.2501470627843000  0.8590362488492546  0.6411102131888042
  0.8594210835208810  0.6405739163099555  0.2500646068546343
  0.3590824915636018  0.7500680157077091  0.1411192716623362
  0.7500082285097741  0.1410019091243824  0.3588157818279558
  0.1405111928546552  0.3593216671846381  0.7501262829358528
 
  0.00000000E+00  0.00000000E+00  0.00000000E+00
  0.00000000E+00  0.00000000E+00  0.00000000E+00
  0.00000000E+00  0.00000000E+00  0.00000000E+00
  0.00000000E+00  0.00000000E+00  0.00000000E+00
  0.00000000E+00  0.00000000E+00  0.00000000E+00
  0.00000000E+00  0.00000000E+00  0.00000000E+00
  0.00000000E+00  0.00000000E+00  0.00000000E+00
  0.00000000E+00  0.00000000E+00  0.00000000E+00
