Sodium chromium(II) trifluoride         
   1.00000000000000     
     5.4638280285980718    0.0333569858879731   -0.0011962240714243
     0.3924482273935252    5.6482844904541416   -0.0006463576757653
    -0.3437430461841334   -0.0241841858040090    8.1084396897851949
   Na   Cr   F 
     4     4    12
Direct
  0.5066756268883412  0.5546162006686063  0.2354654655366245
  0.4933316920955862  0.4454127841305375  0.7645071184818442
  0.9683597931775627  0.0648621653719831  0.2616384325959402
  0.0316599135302439  0.9351432572966890  0.7383487608107456
  0.4998524941039839  0.0000038596189167  0.0000661973642106
  0.9999962497308530  0.5000354984281510  0.9999795197079540
  0.5000333104291587  0.9998714041885727  0.5000830333892669
  0.0000050214271445  0.4999877729472124  0.4999732738116758
  0.6749146928253893  0.2836126101109577  0.0596287901547465
  0.3251394081605967  0.7163928304110534  0.9404158949068929
  0.2017799673631400  0.2065970847162023  0.9169529408067391
  0.7981086509670000  0.7934504359293498  0.0830967564287473
  0.7147802710702010  0.3256571625815082  0.4221066121096193
  0.2851716980912892  0.6743981516581838  0.5778517295597266
  0.1839564211526893  0.1859588728953085  0.5536295454530823
  0.8161601586701673  0.8139632569870622  0.4463221816262884
  0.3689921448883758  0.9348483469145927  0.2725340756344041
  0.6310390950765145  0.0651853164556382  0.7274292178850845
  0.1282600349850088  0.4293126088402743  0.2275713008779036
  0.8717832953667561  0.5706903848492109  0.7723991598584935
 
  0.00000000E+00  0.00000000E+00  0.00000000E+00
  0.00000000E+00  0.00000000E+00  0.00000000E+00
  0.00000000E+00  0.00000000E+00  0.00000000E+00
  0.00000000E+00  0.00000000E+00  0.00000000E+00
  0.00000000E+00  0.00000000E+00  0.00000000E+00
  0.00000000E+00  0.00000000E+00  0.00000000E+00
  0.00000000E+00  0.00000000E+00  0.00000000E+00
  0.00000000E+00  0.00000000E+00  0.00000000E+00
  0.00000000E+00  0.00000000E+00  0.00000000E+00
  0.00000000E+00  0.00000000E+00  0.00000000E+00
  0.00000000E+00  0.00000000E+00  0.00000000E+00
  0.00000000E+00  0.00000000E+00  0.00000000E+00
  0.00000000E+00  0.00000000E+00  0.00000000E+00
  0.00000000E+00  0.00000000E+00  0.00000000E+00
  0.00000000E+00  0.00000000E+00  0.00000000E+00
  0.00000000E+00  0.00000000E+00  0.00000000E+00
  0.00000000E+00  0.00000000E+00  0.00000000E+00
  0.00000000E+00  0.00000000E+00  0.00000000E+00
  0.00000000E+00  0.00000000E+00  0.00000000E+00
  0.00000000E+00  0.00000000E+00  0.00000000E+00
