V2 F8                                   
   1.00000000000000     
     4.6016727990675479   -0.0000081938946628    2.6634075868993881
    -0.0000034054788429    5.1602782580676783   -0.0000100931541575
    -0.0308059823714400   -0.0000103155506950    5.2970291378107630
   V    F 
     2     8
Direct
  0.4999979652370570  0.4999897610449580  0.4999982504916360
  0.9999980630764185  0.0000102496092040  0.9999981187084828
  0.8353175262818127  0.9098842917961676  0.7995932034200663
  0.3353152624435509  0.5901171981597813  0.2995899356630076
  0.1646796083237305  0.0901107400626628  0.2004106720663259
  0.6646818671212884  0.4098877782986747  0.7004139183312006
  0.3381295291091249  0.8018806616579894  0.7411404770006698
  0.8381311350233318  0.6981206015519277  0.2411392889348178
  0.6618753173269027  0.1981235853425858  0.2588574712128562
  0.1618737260567755  0.3018751324760487  0.7588586641709369
 
  0.00000000E+00  0.00000000E+00  0.00000000E+00
  0.00000000E+00  0.00000000E+00  0.00000000E+00
  0.00000000E+00  0.00000000E+00  0.00000000E+00
  0.00000000E+00  0.00000000E+00  0.00000000E+00
  0.00000000E+00  0.00000000E+00  0.00000000E+00
  0.00000000E+00  0.00000000E+00  0.00000000E+00
  0.00000000E+00  0.00000000E+00  0.00000000E+00
  0.00000000E+00  0.00000000E+00  0.00000000E+00
  0.00000000E+00  0.00000000E+00  0.00000000E+00
  0.00000000E+00  0.00000000E+00  0.00000000E+00
