Mn2 F4                                  
   1.00000000000000     
     4.8624411939118364   -0.0000006229516777   -0.0000000330301147
    -0.0000006218272424    4.8624412664643089    0.0000000086265646
    -0.0000000228284345    0.0000000045665539    3.3029378701840786
   Mn   F 
     2     4
Direct
  0.5000000907105431  0.4999999355586056  0.4999999965348181
  0.0000000992821398  0.0000000542153558  0.0000000003133493
  0.1956247246021263  0.8043752582922892  0.5000000065798247
  0.8043751836601487  0.1956247750269640  0.5000000002090772
  0.3043750553114393  0.3043750867313406  0.9999999721313841
  0.6956248464336099  0.6956248901754520  0.0000000242315537
 
  0.00000000E+00  0.00000000E+00  0.00000000E+00
  0.00000000E+00  0.00000000E+00  0.00000000E+00
  0.00000000E+00  0.00000000E+00  0.00000000E+00
  0.00000000E+00  0.00000000E+00  0.00000000E+00
  0.00000000E+00  0.00000000E+00  0.00000000E+00
  0.00000000E+00  0.00000000E+00  0.00000000E+00
