Sodium cobalt fluoride                  
   1.00000000000000     
     5.1937674698332223   -0.0009130040115108    0.0000005976597141
    -0.0011213725642416    7.1942010128053688   -0.0004979961665800
     0.0000268201086870   -0.0003416740606186    5.0003534235918519
   Co   F 
     4    12
Direct
  0.5006774561813913  0.5007434460500214  0.9985321864403039
  0.9991865242162834  0.4993397865451438  0.4985318734893895
  0.4991877648185258  0.0006987413943445  0.0014073703726433
  0.0007304536586490  0.9992928380767895  0.5015115657429935
  0.4645123301900901  0.2504234643304163  0.1198720186738215
  0.5355097199436463  0.7506826463520738  0.8799371379563518
  0.0355735200715557  0.7493089203561679  0.6200770047765914
  0.9645188497215937  0.2496257533714398  0.3801434591890867
  0.1989647693768376  0.5571362484906328  0.1820710758724674
  0.8021360376897381  0.4426861005635853  0.8168469974821013
  0.3011035420216273  0.4429180058386912  0.6823304812632233
  0.6976795610976440  0.5574137632947145  0.3167820737060953
  0.8012090297864192  0.0570564763664504  0.8177502740624999
  0.1976391499531714  0.9425744548103868  0.1832516863404647
  0.6990480361580172  0.9428106879078996  0.3178568980612748
  0.3023232251148149  0.0572886662512487  0.6830978885707051
 
  0.00000000E+00  0.00000000E+00  0.00000000E+00
  0.00000000E+00  0.00000000E+00  0.00000000E+00
  0.00000000E+00  0.00000000E+00  0.00000000E+00
  0.00000000E+00  0.00000000E+00  0.00000000E+00
  0.00000000E+00  0.00000000E+00  0.00000000E+00
  0.00000000E+00  0.00000000E+00  0.00000000E+00
  0.00000000E+00  0.00000000E+00  0.00000000E+00
  0.00000000E+00  0.00000000E+00  0.00000000E+00
  0.00000000E+00  0.00000000E+00  0.00000000E+00
  0.00000000E+00  0.00000000E+00  0.00000000E+00
  0.00000000E+00  0.00000000E+00  0.00000000E+00
  0.00000000E+00  0.00000000E+00  0.00000000E+00
  0.00000000E+00  0.00000000E+00  0.00000000E+00
  0.00000000E+00  0.00000000E+00  0.00000000E+00
  0.00000000E+00  0.00000000E+00  0.00000000E+00
  0.00000000E+00  0.00000000E+00  0.00000000E+00
