Co2 F4                                  
   1.00000000000000     
     4.6898618719690184    0.0001143217898180   -0.0000000377550869
     0.0001144051057656    4.6894364161465729   -0.0000002119112594
    -0.0000000272835991   -0.0000001452216562    3.1803215165328256
   Co   F 
     2     4
Direct
  0.5000035982945903  0.5000224707290712  0.5000000007217409
  0.0000036228245293  0.9999776725498677  0.9999999977269169
  0.1956766614548258  0.8043298934698697  0.5000000072353359
  0.8043197434430169  0.1956861039751701  0.4999999950865330
  0.3043108228883895  0.3043043957010809  0.9999999979204333
  0.6956855510946411  0.6956794635749404  0.0000000013090400
 
  0.00000000E+00  0.00000000E+00  0.00000000E+00
  0.00000000E+00  0.00000000E+00  0.00000000E+00
  0.00000000E+00  0.00000000E+00  0.00000000E+00
  0.00000000E+00  0.00000000E+00  0.00000000E+00
  0.00000000E+00  0.00000000E+00  0.00000000E+00
  0.00000000E+00  0.00000000E+00  0.00000000E+00
