Sodium trimanganese decafluoride        
   1.00000000000000     
    -0.0016650009139588    7.8416525281413838    3.6778942749204355
     6.5597769334628548    0.0001121085651842    3.6758303728706423
     6.5597590486733104    7.8400673109914285    0.0015115934117529
   Na   Mn   F 
     2     6    20
Direct
  0.9911398380279337  0.9920858590426462  0.0088119761835017
  0.2410455007968864  0.2441622695704169  0.2589868055482967
  0.5058157169944053  0.5055726565128680  0.4944068888789417
  0.7565375833341932  0.7554952242287456  0.7440077502236591
  0.2584545292431386  0.7575819044517260  0.2412566709284789
  0.7579021048032502  0.2579442174795403  0.7424181201139533
  0.0086140651654389  0.5077424279109835  0.9917889681103702
  0.5078911157181523  0.0085137218754738  0.4921109813050961
  0.1479655341769615  0.8771334513801818  0.1229091000268809
  0.8773373734578769  0.1480671005266601  0.8516158757014622
  0.1266987282731407  0.3982627095785958  0.1023296959596962
  0.3989755991386801  0.1274733962325882  0.3721774768202764
  0.8091447166299517  0.2064066690764363  0.1952335348603995
  0.2064998930277469  0.8090532755950903  0.7890571975629683
  0.0545412917332087  0.4604465362851826  0.4406759782381684
  0.4609435156447006  0.0542555321042428  0.0434916448649716
  0.8427620746123381  0.0400433424199846  0.6556976518421891
  0.0401156205969713  0.8417988225884088  0.4613811231354887
  0.5937317009033478  0.7885831787604545  0.4075260683089041
  0.7880872810528814  0.5936205214026202  0.2101391946792006
  0.6369476484138161  0.3719119507422022  0.6280573988186759
  0.3719295876103530  0.6365643766450404  0.3629624937828382
  0.6223119420086647  0.8873033072687164  0.6128416150393718
  0.8874421516234676  0.6223581654703096  0.8777241478746873
  0.4767826674614142  0.6703104706731864  0.0264812112263471
  0.6700331615008892  0.4762081622045073  0.8265369416106481
  0.2229932610353700  0.4237709621968264  0.7735489938330176
  0.4229557190148014  0.2229297097763521  0.5802246025215183
 
  0.00000000E+00  0.00000000E+00  0.00000000E+00
  0.00000000E+00  0.00000000E+00  0.00000000E+00
  0.00000000E+00  0.00000000E+00  0.00000000E+00
  0.00000000E+00  0.00000000E+00  0.00000000E+00
  0.00000000E+00  0.00000000E+00  0.00000000E+00
  0.00000000E+00  0.00000000E+00  0.00000000E+00
  0.00000000E+00  0.00000000E+00  0.00000000E+00
  0.00000000E+00  0.00000000E+00  0.00000000E+00
  0.00000000E+00  0.00000000E+00  0.00000000E+00
  0.00000000E+00  0.00000000E+00  0.00000000E+00
  0.00000000E+00  0.00000000E+00  0.00000000E+00
  0.00000000E+00  0.00000000E+00  0.00000000E+00
  0.00000000E+00  0.00000000E+00  0.00000000E+00
  0.00000000E+00  0.00000000E+00  0.00000000E+00
  0.00000000E+00  0.00000000E+00  0.00000000E+00
  0.00000000E+00  0.00000000E+00  0.00000000E+00
  0.00000000E+00  0.00000000E+00  0.00000000E+00
  0.00000000E+00  0.00000000E+00  0.00000000E+00
  0.00000000E+00  0.00000000E+00  0.00000000E+00
  0.00000000E+00  0.00000000E+00  0.00000000E+00
  0.00000000E+00  0.00000000E+00  0.00000000E+00
  0.00000000E+00  0.00000000E+00  0.00000000E+00
  0.00000000E+00  0.00000000E+00  0.00000000E+00
  0.00000000E+00  0.00000000E+00  0.00000000E+00
  0.00000000E+00  0.00000000E+00  0.00000000E+00
  0.00000000E+00  0.00000000E+00  0.00000000E+00
  0.00000000E+00  0.00000000E+00  0.00000000E+00
  0.00000000E+00  0.00000000E+00  0.00000000E+00
