Sodium iron trifluoride                 
   1.00000000000000     
     5.3617045553752485   -0.0000015286711016    0.0000012741823705
    -0.0000021392168737    7.4183210890538485    0.0000046224171223
     0.0000012362225961    0.0000031572609827    5.1110427201008948
   Fe   F 
     4    12
Direct
  0.4999953319116960  0.0000028098355799  0.0000209783991171
 -0.0000050664083100  0.0000034377599745  0.4999775823925010
  0.4999991112259976  0.4999970224831816  0.0000220657391825
 -0.0000077544307273  0.4999980295135236  0.4999785735041845
  0.4800604861749802  0.2499994618728459  0.1025098659479952
  0.5199469907233675  0.7500000657163349  0.8974534616107128
  0.0199473372134113  0.7500003601749721  0.6025473043382620
  0.9800608724795894  0.2500011373439568  0.3974911405599005
  0.2962154297092239  0.0504827488069484  0.6991764772751340
  0.7037827526484379  0.9495175858699210  0.3007781798661706
  0.2037827731214767  0.9495152737119475  0.1992215093527908
  0.7962196046897150  0.0504818563891598  0.8008241283049509
  0.7037840050526259  0.5504821627394882  0.3007792692650244
  0.2962169378354334  0.4495172303457253  0.6991761003461487
  0.7962171447585842  0.4495178841735278  0.8008233726116213
  0.2037840432945062  0.5504829332629197  0.1992199834863074
 
  0.00000000E+00  0.00000000E+00  0.00000000E+00
  0.00000000E+00  0.00000000E+00  0.00000000E+00
  0.00000000E+00  0.00000000E+00  0.00000000E+00
  0.00000000E+00  0.00000000E+00  0.00000000E+00
  0.00000000E+00  0.00000000E+00  0.00000000E+00
  0.00000000E+00  0.00000000E+00  0.00000000E+00
  0.00000000E+00  0.00000000E+00  0.00000000E+00
  0.00000000E+00  0.00000000E+00  0.00000000E+00
  0.00000000E+00  0.00000000E+00  0.00000000E+00
  0.00000000E+00  0.00000000E+00  0.00000000E+00
  0.00000000E+00  0.00000000E+00  0.00000000E+00
  0.00000000E+00  0.00000000E+00  0.00000000E+00
  0.00000000E+00  0.00000000E+00  0.00000000E+00
  0.00000000E+00  0.00000000E+00  0.00000000E+00
  0.00000000E+00  0.00000000E+00  0.00000000E+00
  0.00000000E+00  0.00000000E+00  0.00000000E+00
