Sodium chromium fluoride (5/3/14) - alph
   1.00000000000000     
    10.3644604641696123    0.0000376395450340    0.0070582812328993
     0.0000181618134042    7.1542063104039277    0.0000211060563174
    -0.1025692968719855    0.0000229653901351    7.2281875480013467
   Na   Cr   F 
    10     6    28
Direct
  0.2509727049731580  0.1939242336799438  0.2628358917909424
  0.7489006456287228  0.8063638146034577  0.7370392076301115
  0.2488998664916906  0.6936372750106941  0.2370397909315400
  0.7509546794971058  0.3060773606148217  0.7628374670269338
  0.2605007937491379  0.2654573246673877  0.7807512426512062
  0.7395232318723544  0.7345599208579330  0.2190708348098838
  0.2395264329254019  0.7654376701703569  0.7190709184632738
  0.7605145676716916  0.2345274811155917  0.2807607426403393
  0.4989245266381630  0.0000651188274148  0.0021543063171023
  0.9989159368858793  0.4999442750206526  0.5021589771176380
  0.0002888472412081  0.9990008557970071  0.9999868783819039
  0.5002749181573733  0.5009874706281394  0.4999870649615517
  0.9999248966457159  0.9993360837025520  0.4999063706522620
  0.4999095991564459  0.5007060493378788  0.9999090241581001
  0.5000439167675168  0.0013556090871063  0.5000294234425482
  0.0000468913145610  0.4986149681562395  0.0000351957944034
  0.9541235172043017  0.2469874636983107  0.9239921694167563
  0.0460207473073027  0.7510350450697629  0.0755977095579823
  0.5460171551924518  0.7489500400159841  0.5755966366214196
  0.4541128422044878  0.2529969916952481  0.4239936633592123
  0.9936832526498947  0.0871946319814825  0.2480982159923002
  0.0065301958283541  0.9116968763407769  0.7515176826087995
  0.5065236800293818  0.5883006814481320  0.2515192777101163
  0.4936685860722392  0.4128146639319752  0.7480927793833558
  0.1788748579866564  0.0515430128930845  0.9906096186925666
  0.8214455514208723  0.9478548207006554  0.0091451217292615
  0.3214402354803525  0.5521376110811076  0.5091431345686743
  0.6788701916645508  0.4484427559833577  0.4905876902407087
  0.3811911609401690  0.0085983452588678  0.7007529387297424
  0.6188645591572239  0.9924156362188299  0.2991896310529469
  0.1188744027328994  0.5075742428060153  0.7991943746545260
  0.8811898882290805  0.4913888116188048  0.2007545666363626
  0.1111382901741536  0.7920061935744087  0.4552432044684238
  0.8888166029579239  0.2070638507911511  0.5446179925500516
  0.3888064869195773  0.2929572941364000  0.0446209799054031
  0.6111296266100013  0.7080088952781267  0.9552453311656279
  0.6300155124870059  0.0680075991707341  0.6772483103023248
  0.3704226301456544  0.9329342335823512  0.3223055487279041
  0.8704258364476232  0.5670534247974288  0.8223128216268236
  0.1300164996865689  0.4319858628125814  0.1772592707311418
  0.3578007912780592  0.6671643616778482  0.9644836889676327
  0.6420238471094706  0.3339652261610482  0.0354084765464648
  0.1420368104704792  0.1660572200376720  0.5354163459046291
  0.8578137929971135  0.8328686949606805  0.4644794663791032
 
  0.00000000E+00  0.00000000E+00  0.00000000E+00
  0.00000000E+00  0.00000000E+00  0.00000000E+00
  0.00000000E+00  0.00000000E+00  0.00000000E+00
  0.00000000E+00  0.00000000E+00  0.00000000E+00
  0.00000000E+00  0.00000000E+00  0.00000000E+00
  0.00000000E+00  0.00000000E+00  0.00000000E+00
  0.00000000E+00  0.00000000E+00  0.00000000E+00
  0.00000000E+00  0.00000000E+00  0.00000000E+00
  0.00000000E+00  0.00000000E+00  0.00000000E+00
  0.00000000E+00  0.00000000E+00  0.00000000E+00
  0.00000000E+00  0.00000000E+00  0.00000000E+00
  0.00000000E+00  0.00000000E+00  0.00000000E+00
  0.00000000E+00  0.00000000E+00  0.00000000E+00
  0.00000000E+00  0.00000000E+00  0.00000000E+00
  0.00000000E+00  0.00000000E+00  0.00000000E+00
  0.00000000E+00  0.00000000E+00  0.00000000E+00
  0.00000000E+00  0.00000000E+00  0.00000000E+00
  0.00000000E+00  0.00000000E+00  0.00000000E+00
  0.00000000E+00  0.00000000E+00  0.00000000E+00
  0.00000000E+00  0.00000000E+00  0.00000000E+00
  0.00000000E+00  0.00000000E+00  0.00000000E+00
  0.00000000E+00  0.00000000E+00  0.00000000E+00
  0.00000000E+00  0.00000000E+00  0.00000000E+00
  0.00000000E+00  0.00000000E+00  0.00000000E+00
  0.00000000E+00  0.00000000E+00  0.00000000E+00
  0.00000000E+00  0.00000000E+00  0.00000000E+00
  0.00000000E+00  0.00000000E+00  0.00000000E+00
  0.00000000E+00  0.00000000E+00  0.00000000E+00
  0.00000000E+00  0.00000000E+00  0.00000000E+00
  0.00000000E+00  0.00000000E+00  0.00000000E+00
  0.00000000E+00  0.00000000E+00  0.00000000E+00
  0.00000000E+00  0.00000000E+00  0.00000000E+00
  0.00000000E+00  0.00000000E+00  0.00000000E+00
  0.00000000E+00  0.00000000E+00  0.00000000E+00
  0.00000000E+00  0.00000000E+00  0.00000000E+00
  0.00000000E+00  0.00000000E+00  0.00000000E+00
  0.00000000E+00  0.00000000E+00  0.00000000E+00
  0.00000000E+00  0.00000000E+00  0.00000000E+00
  0.00000000E+00  0.00000000E+00  0.00000000E+00
  0.00000000E+00  0.00000000E+00  0.00000000E+00
  0.00000000E+00  0.00000000E+00  0.00000000E+00
  0.00000000E+00  0.00000000E+00  0.00000000E+00
  0.00000000E+00  0.00000000E+00  0.00000000E+00
  0.00000000E+00  0.00000000E+00  0.00000000E+00
