Sodium trifluoromanganate(II)           
   1.00000000000000     
     5.7199431845259845    0.0000000422132748    0.0000004611480759
     0.0000000578984216    7.9294516768452548    0.0000007109259180
     0.0000004366226520    0.0000004994518266    5.4750221278780318
   Na   Mn   F 
     4     4    12
Direct
  0.0588215948447202  0.2500001029594928  0.9878665843525408
  0.9411787442410968  0.7499997961932844  0.0121330489718102
  0.4411788488096426  0.7500000196878855  0.4878667566879024
  0.5588214918038572  0.2499998323829731  0.5121330899486092
  0.4999996250409164  0.5000008262377691  0.0000001300869035
  0.0000000000685215  0.4999995436592664  0.5000001070489324
  0.4999999123546012  0.0000014544435049  0.0000003699713579
  0.0000002388600679  0.9999992634795878  0.5000003567193048
  0.4398715578174770  0.2500005367432652  0.1211858601627046
  0.5601280270974802  0.7500006293808803  0.8788148839613410
  0.0601283673647066  0.7499994772060886  0.6211852963314460
  0.9398718685850064  0.2499995096660802  0.3788143018587586
  0.1907384451165546  0.5628661666470616  0.1846348405344565
  0.8092616509000079  0.4371337624487275  0.8153652935267115
  0.3092613018046745  0.4371333875730328  0.6846353926380133
  0.6907383780977996  0.5628661978460882  0.3153651454774950
  0.8092614014738327  0.0628662311919337  0.8153645820285900
  0.1907385361764285  0.9371336255748780  0.1846346354377401
  0.6907386490461886  0.9371334256770004  0.3153645213726431
  0.3092613834964391  0.0628662110012136  0.6846347518827455
 
  0.00000000E+00  0.00000000E+00  0.00000000E+00
  0.00000000E+00  0.00000000E+00  0.00000000E+00
  0.00000000E+00  0.00000000E+00  0.00000000E+00
  0.00000000E+00  0.00000000E+00  0.00000000E+00
  0.00000000E+00  0.00000000E+00  0.00000000E+00
  0.00000000E+00  0.00000000E+00  0.00000000E+00
  0.00000000E+00  0.00000000E+00  0.00000000E+00
  0.00000000E+00  0.00000000E+00  0.00000000E+00
  0.00000000E+00  0.00000000E+00  0.00000000E+00
  0.00000000E+00  0.00000000E+00  0.00000000E+00
  0.00000000E+00  0.00000000E+00  0.00000000E+00
  0.00000000E+00  0.00000000E+00  0.00000000E+00
  0.00000000E+00  0.00000000E+00  0.00000000E+00
  0.00000000E+00  0.00000000E+00  0.00000000E+00
  0.00000000E+00  0.00000000E+00  0.00000000E+00
  0.00000000E+00  0.00000000E+00  0.00000000E+00
  0.00000000E+00  0.00000000E+00  0.00000000E+00
  0.00000000E+00  0.00000000E+00  0.00000000E+00
  0.00000000E+00  0.00000000E+00  0.00000000E+00
  0.00000000E+00  0.00000000E+00  0.00000000E+00
