Vanadium fluoride                       
   1.00000000000000     
     5.3877187918450833    0.0000037369394003    0.0000004687608839
     0.0000113913546369   16.1144682311260183   -0.0000009555627012
     0.0000006089844031   -0.0000003354552957    7.4369968876236534
   V    F 
     8    40
Direct
  0.2500170128434261  0.1193047271986476  0.1074319366149823
  0.7500173827421326  0.8806950788726181  0.8925676702508604
  0.7500176638675575  0.6193051088531880  0.3925678462145921
  0.2500174454698997  0.3806950252517136  0.6074319470022655
  0.7500083754829837  0.1428427282741781  0.4572537985136937
  0.2500075397676813  0.8571580917029736  0.5427466810708049
  0.2500075652561469  0.6428420142567387  0.0427463609780359
  0.7500080419708837  0.3571576716730629  0.9572530797215260
  0.2500070874699646  0.0349848622850427  0.2569846648580618
  0.7500063211323187  0.9650149462942182  0.7430158221682558
  0.7500107550026697  0.5349859858786002  0.2430161868922630
  0.2500055939189175  0.4650141433121269  0.7569830771488367
  0.2499819622263941  0.2200132180622607  0.0185405385990102
  0.7499809630563521  0.7799868441782960  0.9814595701108587
  0.7499783334304272  0.7200130835933541  0.4814585149931779
  0.2499786419532594  0.2799871810886753  0.5185405295911041
  0.4881922043410120  0.0829800687123300  0.9730669781650652
  0.5118377951589471  0.9170291943913064  0.0269076881804165
  0.5118369151612472  0.5829707966241952  0.5269057196716065
  0.4881905812075580  0.4170191828345087  0.4730656159869992
  0.9881913619991201  0.9170196996815153  0.0269327738165069
  0.0118370482962205  0.0829706642069004  0.9730918737787351
  0.0118371762214471  0.4170293846117172  0.4730930288981101
  0.9881900663704291  0.5829812609054740  0.5269351913919400
  0.4993259933263370  0.1658703585759468  0.2711337369934224
  0.5007003462273809  0.8341355320806568  0.7288397572778715
  0.5007012567786355  0.6658641580728604  0.2288395189879228
  0.4993269753870562  0.3341286409960182  0.7711326718470433
  0.9993250636091379  0.8341291604008140  0.7288661322296912
  0.0007019525743852  0.1658645097004499  0.2711601983168331
  0.0007063275199840  0.3341340503709812  0.7711627746850978
  0.9993270330692984  0.6658710266001433  0.2288680870874216
  0.7499720504441474  0.0426708696599644  0.3647480947249709
  0.2499728284611303  0.9573303856676496  0.6352613998000333
  0.2499691869724010  0.5426684782814573  0.1352576427665207
  0.7499722070780176  0.4573297969827625  0.8647406083235880
  0.7499962818396957  0.2512526517893046  0.4771641465871229
  0.2499950796623992  0.7487474770035001  0.5228309183684334
  0.2499974458983654  0.7512533345144349  0.0228289097470809
  0.7499969260891521  0.2487472053391716  0.9771707640414323
  0.5123472254156384  0.1254617052054417  0.6085321125065898
  0.4876182228595797  0.8745531020941806  0.3914267431709134
  0.4876187423924750  0.6254451288864259  0.8914265498525720
  0.5123429503655169  0.3745391823266572  0.1085308190585239
  0.0123440233400641  0.8745394433075923  0.3914680726218159
  0.9876185631683563  0.1254478073688398  0.6085722780785190
  0.9876178407960845  0.3745545414732388  0.1085720032142446
  0.0123416423777927  0.6254605135578772  0.8914689280945928
 
  0.00000000E+00  0.00000000E+00  0.00000000E+00
  0.00000000E+00  0.00000000E+00  0.00000000E+00
  0.00000000E+00  0.00000000E+00  0.00000000E+00
  0.00000000E+00  0.00000000E+00  0.00000000E+00
  0.00000000E+00  0.00000000E+00  0.00000000E+00
  0.00000000E+00  0.00000000E+00  0.00000000E+00
  0.00000000E+00  0.00000000E+00  0.00000000E+00
  0.00000000E+00  0.00000000E+00  0.00000000E+00
  0.00000000E+00  0.00000000E+00  0.00000000E+00
  0.00000000E+00  0.00000000E+00  0.00000000E+00
  0.00000000E+00  0.00000000E+00  0.00000000E+00
  0.00000000E+00  0.00000000E+00  0.00000000E+00
  0.00000000E+00  0.00000000E+00  0.00000000E+00
  0.00000000E+00  0.00000000E+00  0.00000000E+00
  0.00000000E+00  0.00000000E+00  0.00000000E+00
  0.00000000E+00  0.00000000E+00  0.00000000E+00
  0.00000000E+00  0.00000000E+00  0.00000000E+00
  0.00000000E+00  0.00000000E+00  0.00000000E+00
  0.00000000E+00  0.00000000E+00  0.00000000E+00
  0.00000000E+00  0.00000000E+00  0.00000000E+00
  0.00000000E+00  0.00000000E+00  0.00000000E+00
  0.00000000E+00  0.00000000E+00  0.00000000E+00
  0.00000000E+00  0.00000000E+00  0.00000000E+00
  0.00000000E+00  0.00000000E+00  0.00000000E+00
  0.00000000E+00  0.00000000E+00  0.00000000E+00
  0.00000000E+00  0.00000000E+00  0.00000000E+00
  0.00000000E+00  0.00000000E+00  0.00000000E+00
  0.00000000E+00  0.00000000E+00  0.00000000E+00
  0.00000000E+00  0.00000000E+00  0.00000000E+00
  0.00000000E+00  0.00000000E+00  0.00000000E+00
  0.00000000E+00  0.00000000E+00  0.00000000E+00
  0.00000000E+00  0.00000000E+00  0.00000000E+00
  0.00000000E+00  0.00000000E+00  0.00000000E+00
  0.00000000E+00  0.00000000E+00  0.00000000E+00
  0.00000000E+00  0.00000000E+00  0.00000000E+00
  0.00000000E+00  0.00000000E+00  0.00000000E+00
  0.00000000E+00  0.00000000E+00  0.00000000E+00
  0.00000000E+00  0.00000000E+00  0.00000000E+00
  0.00000000E+00  0.00000000E+00  0.00000000E+00
  0.00000000E+00  0.00000000E+00  0.00000000E+00
  0.00000000E+00  0.00000000E+00  0.00000000E+00
  0.00000000E+00  0.00000000E+00  0.00000000E+00
  0.00000000E+00  0.00000000E+00  0.00000000E+00
  0.00000000E+00  0.00000000E+00  0.00000000E+00
  0.00000000E+00  0.00000000E+00  0.00000000E+00
  0.00000000E+00  0.00000000E+00  0.00000000E+00
  0.00000000E+00  0.00000000E+00  0.00000000E+00
  0.00000000E+00  0.00000000E+00  0.00000000E+00
