Cr2 F4                                  
   1.00000000000000     
     4.6457864671882376   -0.0000000411172950   -0.5832223124955279
    -0.0000000284289505    4.6209449588534701    0.0000001382388833
    -0.0273346927019693    0.0000000945216585    3.5830405723141774
   Cr   F 
     2     4
Direct
  0.5001613801285989  0.5000190470277510  0.4999012213268658
  0.0001615510857357 -0.0000191330328851 -0.0000989778282694
  0.1993613361724373  0.8007093778469618  0.4517194108250304
  0.6993613163888149  0.6992906532471480  0.9517194154895822
  0.8004772351956503  0.1992632336362271  0.5483794502222041
  0.3004771810287629  0.3007368212747973  0.0483794799645869
 
  0.00000000E+00  0.00000000E+00  0.00000000E+00
  0.00000000E+00  0.00000000E+00  0.00000000E+00
  0.00000000E+00  0.00000000E+00  0.00000000E+00
  0.00000000E+00  0.00000000E+00  0.00000000E+00
  0.00000000E+00  0.00000000E+00  0.00000000E+00
  0.00000000E+00  0.00000000E+00  0.00000000E+00
