Ti12 F48                                
   1.00000000000000     
    22.5153597603160307   -0.0000000006960741   -0.0000007814558689
     0.0000000018020809    3.9167001510238717   -0.0000000000008398
    -0.0000003238739309   -0.0000000030728515    9.5627216243033342
   Ti   F 
    12    48
Direct
  0.7357125141097427  0.2499999998228972  0.8029248252449150
  0.2357125088220542  0.2500000000766107  0.6970751932029344
  0.2642886135949567  0.7500000002359499  0.1970754757972912
  0.7642886042734460  0.7499999999872102  0.3029245068856952
  0.0978865832424987  0.2500000001686828  0.4458106848934449
  0.5978865807480034  0.2500000002568967  0.0541893044759192
  0.9021126816615137  0.7499999997697842  0.5541890739070752
  0.4021126815579166  0.7499999996241229  0.9458109623510822
  0.5739885207751456  0.2500000004287415  0.6477369153127981
  0.0739885206053330  0.2500000002910170  0.8522630297291514
  0.4260118350493869  0.7499999997531503  0.3522639084563508
  0.9260118327768012  0.7499999995742002  0.1477361197220475
  0.2722700154133406  0.2500000002760245  0.1952772728518752
  0.7722700125657056  0.2499999999267715  0.3047226958702609
  0.7277293182705762  0.7499999997895372  0.8047253778507368
  0.2277293112932313  0.7500000001100489  0.6952746558594285
  0.9207108380591436  0.2499999995476045  0.1646566860902539
  0.4207108518418607  0.2499999997104823  0.3353433279467026
  0.0792897687336733  0.7500000002934470  0.8353424011212809
  0.5792897662851644  0.7500000005470113  0.6646575863818640
  0.0228447625103527  0.2500000005049827  0.3824546201675076
  0.5228447833415046  0.2499999998502247  0.1175453926392009
  0.9771548643534587  0.7499999996153832  0.6175422625814235
  0.4771548715134770  0.7499999995126814  0.8824577126689590
  0.5910114934790158  0.2500000005065743  0.4664998632593793
  0.0910114584156858  0.2500000003483436  0.0335001302269191
  0.4089884801176566  0.7499999997491003  0.5335010658827528
  0.9089885059306795  0.7499999988471089  0.9664989725768862
  0.6611932409262096  0.2500000002596892  0.6898918858535623
  0.1611932412105830  0.2500000003915659  0.8101081340979164
  0.3388072166165728  0.7500000001640359  0.3101090453558939
  0.8388072063192809  0.7499999996475566  0.1898909417354986
  0.9001976769735549  0.2499999996844267  0.5369957112121497
  0.4001976883978102  0.2499999996129745  0.9630043163945530
  0.0998008570880557  0.7500000002594049  0.4630032316012276
  0.5998008590563089  0.7500000002363691  0.0369967418444759
  0.7770464824948391  0.2499999994337543  0.6424116832828588
  0.2770464896118057  0.2499999997798170  0.8575883377253604
  0.2229536157026573  0.7500000003830323  0.3575878629765512
  0.7229536092271047  0.7500000003840199  0.1424121193885881
  0.1369673432440450  0.2500000005490008  0.2835467139284233
  0.6369673516875096  0.2500000007616663  0.2164532635558558
  0.8630317424200200  0.7499999994115996  0.7164528820882055
  0.3630317414855639  0.7499999993480984  0.7835471265816452
  0.6760877390346778  0.2499999999438813  0.9559002514246515
  0.1760877395281568  0.2499999999724665  0.5440997323203618
  0.3239123009226290  0.7499999997771383  0.0440990748581385
  0.8239122882526715  0.7499999999111751  0.4559009372625979
  0.7945727265597995  0.2499999990542534  0.9284753523077285
  0.2945727258084432  0.2500000002228546  0.5715246826903453
  0.2054295799792101  0.7500000012431727  0.0715207622205511
  0.7054295759583766  0.7499999996143671  0.4284791858509109
  0.4946190314024719  0.2500000011717987  0.6345697563618700
  0.9946190215426896  0.2500000005434160  0.8654300864405329
  0.5053810698351739  0.7499999994832649  0.3654314619721930
  0.0053810576011344  0.7499999998119833  0.1345686967684969
  0.0696386073845474  0.2500000003069758  0.6429229846282425
  0.5696385985831043  0.2500000005583942  0.8570769807191851
  0.9303604870769959  0.7499999995402504  0.3570760259557701
  0.4303605087266575  0.7499999994130278  0.1429240066415147
 
  0.00000000E+00  0.00000000E+00  0.00000000E+00
  0.00000000E+00  0.00000000E+00  0.00000000E+00
  0.00000000E+00  0.00000000E+00  0.00000000E+00
  0.00000000E+00  0.00000000E+00  0.00000000E+00
  0.00000000E+00  0.00000000E+00  0.00000000E+00
  0.00000000E+00  0.00000000E+00  0.00000000E+00
  0.00000000E+00  0.00000000E+00  0.00000000E+00
  0.00000000E+00  0.00000000E+00  0.00000000E+00
  0.00000000E+00  0.00000000E+00  0.00000000E+00
  0.00000000E+00  0.00000000E+00  0.00000000E+00
  0.00000000E+00  0.00000000E+00  0.00000000E+00
  0.00000000E+00  0.00000000E+00  0.00000000E+00
  0.00000000E+00  0.00000000E+00  0.00000000E+00
  0.00000000E+00  0.00000000E+00  0.00000000E+00
  0.00000000E+00  0.00000000E+00  0.00000000E+00
  0.00000000E+00  0.00000000E+00  0.00000000E+00
  0.00000000E+00  0.00000000E+00  0.00000000E+00
  0.00000000E+00  0.00000000E+00  0.00000000E+00
  0.00000000E+00  0.00000000E+00  0.00000000E+00
  0.00000000E+00  0.00000000E+00  0.00000000E+00
  0.00000000E+00  0.00000000E+00  0.00000000E+00
  0.00000000E+00  0.00000000E+00  0.00000000E+00
  0.00000000E+00  0.00000000E+00  0.00000000E+00
  0.00000000E+00  0.00000000E+00  0.00000000E+00
  0.00000000E+00  0.00000000E+00  0.00000000E+00
  0.00000000E+00  0.00000000E+00  0.00000000E+00
  0.00000000E+00  0.00000000E+00  0.00000000E+00
  0.00000000E+00  0.00000000E+00  0.00000000E+00
  0.00000000E+00  0.00000000E+00  0.00000000E+00
  0.00000000E+00  0.00000000E+00  0.00000000E+00
  0.00000000E+00  0.00000000E+00  0.00000000E+00
  0.00000000E+00  0.00000000E+00  0.00000000E+00
  0.00000000E+00  0.00000000E+00  0.00000000E+00
  0.00000000E+00  0.00000000E+00  0.00000000E+00
  0.00000000E+00  0.00000000E+00  0.00000000E+00
  0.00000000E+00  0.00000000E+00  0.00000000E+00
  0.00000000E+00  0.00000000E+00  0.00000000E+00
  0.00000000E+00  0.00000000E+00  0.00000000E+00
  0.00000000E+00  0.00000000E+00  0.00000000E+00
  0.00000000E+00  0.00000000E+00  0.00000000E+00
  0.00000000E+00  0.00000000E+00  0.00000000E+00
  0.00000000E+00  0.00000000E+00  0.00000000E+00
  0.00000000E+00  0.00000000E+00  0.00000000E+00
  0.00000000E+00  0.00000000E+00  0.00000000E+00
  0.00000000E+00  0.00000000E+00  0.00000000E+00
  0.00000000E+00  0.00000000E+00  0.00000000E+00
  0.00000000E+00  0.00000000E+00  0.00000000E+00
  0.00000000E+00  0.00000000E+00  0.00000000E+00
  0.00000000E+00  0.00000000E+00  0.00000000E+00
  0.00000000E+00  0.00000000E+00  0.00000000E+00
  0.00000000E+00  0.00000000E+00  0.00000000E+00
  0.00000000E+00  0.00000000E+00  0.00000000E+00
  0.00000000E+00  0.00000000E+00  0.00000000E+00
  0.00000000E+00  0.00000000E+00  0.00000000E+00
  0.00000000E+00  0.00000000E+00  0.00000000E+00
  0.00000000E+00  0.00000000E+00  0.00000000E+00
  0.00000000E+00  0.00000000E+00  0.00000000E+00
  0.00000000E+00  0.00000000E+00  0.00000000E+00
  0.00000000E+00  0.00000000E+00  0.00000000E+00
  0.00000000E+00  0.00000000E+00  0.00000000E+00
