Sodium trifluoromanganate(II)           
   1.00000000000000     
     5.2964620857684839    0.0000018626960928   -0.0000016380580986
     0.0000020646626225    7.3646213560741547    0.0000012608053583
    -0.0000015675509251    0.0000005049392808    5.2061267364772883
   Mn   F 
     4    12
Direct
  0.5000083004711819  0.4999926376407713  0.0000420005834407
  0.0000133616799535  0.4999931415974324  0.4999864742166523
  0.5000146243287970  0.0000068702920290  0.0000176210663064
  0.0000072658776394  0.0000074986873146  0.4999580773437028
  0.4657228125929653  0.2499989521469902  0.1053092895285499
  0.5342631325553090  0.7499990844887030  0.8946587269681625
  0.0342646558927906  0.7500010693705993  0.6053391851583803
  0.9657132088008472  0.2500006699713729  0.3946879003368421
  0.2099569267407135  0.5549787551351862  0.1769133640055027
  0.7900464075630246  0.4449640844357018  0.8230988322666800
  0.2900396654980180  0.4449631659502254  0.6769024900486130
  0.7099495016899607  0.5549835847334318  0.3230910453503604
  0.7900445226015242  0.0550288248497947  0.8230998936470245
  0.2099519530249456  0.9450190718325640  0.1769084085059764
  0.7099546391713734  0.9450190902302517  0.3230914424491639
  0.2900490515109650  0.0550434986376315  0.6768952035246489
 
  0.00000000E+00  0.00000000E+00  0.00000000E+00
  0.00000000E+00  0.00000000E+00  0.00000000E+00
  0.00000000E+00  0.00000000E+00  0.00000000E+00
  0.00000000E+00  0.00000000E+00  0.00000000E+00
  0.00000000E+00  0.00000000E+00  0.00000000E+00
  0.00000000E+00  0.00000000E+00  0.00000000E+00
  0.00000000E+00  0.00000000E+00  0.00000000E+00
  0.00000000E+00  0.00000000E+00  0.00000000E+00
  0.00000000E+00  0.00000000E+00  0.00000000E+00
  0.00000000E+00  0.00000000E+00  0.00000000E+00
  0.00000000E+00  0.00000000E+00  0.00000000E+00
  0.00000000E+00  0.00000000E+00  0.00000000E+00
  0.00000000E+00  0.00000000E+00  0.00000000E+00
  0.00000000E+00  0.00000000E+00  0.00000000E+00
  0.00000000E+00  0.00000000E+00  0.00000000E+00
  0.00000000E+00  0.00000000E+00  0.00000000E+00
