Ti2 F6                                  
   1.00000000000000     
     4.6884026926790128   -0.0014644594225977    2.8425606527010534
     1.5757621111247870    4.3809181677026885    2.8559327535573624
    -0.0195170152298253   -0.0123787800105493    5.5295672340063025
   Ti   F 
     2     6
Direct
  0.5000014306941125  0.4999964486681847  0.4999958512030460
  0.0000096986061564  0.9999980459757154  0.0000014656787855
  0.6808283355628433  0.2434584328367677  0.8305555454396938
  0.2532455088574750  0.8322860824836056  0.6677658360759438
  0.8290459881483514  0.6588577060621859  0.2477290306793876
  0.3192290676922411  0.7566008607161621  0.1693908642901576
  0.7466569404708281  0.1676843329204658  0.3322773234535177
  0.1709830299679851  0.3411180903369129  0.7522840831794610
 
  0.00000000E+00  0.00000000E+00  0.00000000E+00
  0.00000000E+00  0.00000000E+00  0.00000000E+00
  0.00000000E+00  0.00000000E+00  0.00000000E+00
  0.00000000E+00  0.00000000E+00  0.00000000E+00
  0.00000000E+00  0.00000000E+00  0.00000000E+00
  0.00000000E+00  0.00000000E+00  0.00000000E+00
  0.00000000E+00  0.00000000E+00  0.00000000E+00
  0.00000000E+00  0.00000000E+00  0.00000000E+00
