Mn2 F4                                  
   1.00000000000000     
     4.8734000000000002    0.0000000000000000    0.0000000000000000
     0.0000000000000000    4.8734000000000002    0.0000000000000000
     0.0000000000000000    0.0000000000000000    3.3098999999999998
   Mn   F 
     2     4
Direct
  0.5000000000000000  0.5000000000000000  0.5000000000000000
  0.0000000000000000  0.0000000000000000  0.0000000000000000
  0.1950000000000003  0.8049999999999997  0.5000000000000000
  0.8049999999999997  0.1950000000000003  0.5000000000000000
  0.3049999999999997  0.3049999999999997  0.0000000000000000
  0.6950000000000003  0.6950000000000003  0.0000000000000000
 
  0.00000000E+00  0.00000000E+00  0.00000000E+00
  0.00000000E+00  0.00000000E+00  0.00000000E+00
  0.00000000E+00  0.00000000E+00  0.00000000E+00
  0.00000000E+00  0.00000000E+00  0.00000000E+00
  0.00000000E+00  0.00000000E+00  0.00000000E+00
  0.00000000E+00  0.00000000E+00  0.00000000E+00
