Chromium(V) fluoride                    
   1.00000000000000     
     7.6793392667893423   -0.0000914880268506   -0.0001229535464687
    -0.0000858959398356    7.5297983419863552    0.0001075974978157
     0.0001623137291512    0.0000696161131547    5.4631134338535015
   Cr   F 
     4    20
Direct
  0.2584609364943091  0.5865470780375546  0.2499936119058859
  0.7415476159645351  0.4134562380913849  0.7499993179038853
  0.7415521360299877  0.0865489901973646  0.2500100499336781
  0.2584578257631946  0.9134406385889520  0.7499897975723400
  0.3425717446340144  0.7500084490115597  0.0000014709748086
  0.6574460149561219  0.2499891735606283  0.9999990812503299
  0.6574496664513134  0.2500109071714149  0.4999756396271380
  0.3425349962438560  0.7499866039422187  0.5000176259686384
  0.0785126934139768  0.7199327121052406  0.2499784888744401
  0.9214425470988701  0.2800549929702214  0.7499857536545136
  0.9214246701205866  0.2199262615984949  0.2499885791752163
  0.0785345404905442  0.7801008948532129  0.7500523802437016
  0.4713623605086568  0.5209006483655898  0.2500109067887308
  0.5286441263712547  0.4791373087481929  0.7500060757043698
  0.5286727728017979  0.0208803451271038  0.2500040880189118
  0.4713530876919947  0.9790745579206686  0.7499540032006209
  0.1898641121810698  0.4458742178244677  0.0219747345646226
  0.8101239717307607  0.5541346160845961  0.9780210870115127
  0.8101584955652754  0.5541421545998020  0.5219988105491140
  0.1898594167165939  0.4458543485883055  0.4779936239546103
  0.8101165616099877  0.9458741275126101  0.4780110576965342
  0.1899308670279112  0.0541600172599459  0.5220156248185575
  0.1898298926655144  0.0540799658884410  0.9779987642874346
  0.8101488874678822  0.9458847519520361  0.0220194463204209
 
  0.00000000E+00  0.00000000E+00  0.00000000E+00
  0.00000000E+00  0.00000000E+00  0.00000000E+00
  0.00000000E+00  0.00000000E+00  0.00000000E+00
  0.00000000E+00  0.00000000E+00  0.00000000E+00
  0.00000000E+00  0.00000000E+00  0.00000000E+00
  0.00000000E+00  0.00000000E+00  0.00000000E+00
  0.00000000E+00  0.00000000E+00  0.00000000E+00
  0.00000000E+00  0.00000000E+00  0.00000000E+00
  0.00000000E+00  0.00000000E+00  0.00000000E+00
  0.00000000E+00  0.00000000E+00  0.00000000E+00
  0.00000000E+00  0.00000000E+00  0.00000000E+00
  0.00000000E+00  0.00000000E+00  0.00000000E+00
  0.00000000E+00  0.00000000E+00  0.00000000E+00
  0.00000000E+00  0.00000000E+00  0.00000000E+00
  0.00000000E+00  0.00000000E+00  0.00000000E+00
  0.00000000E+00  0.00000000E+00  0.00000000E+00
  0.00000000E+00  0.00000000E+00  0.00000000E+00
  0.00000000E+00  0.00000000E+00  0.00000000E+00
  0.00000000E+00  0.00000000E+00  0.00000000E+00
  0.00000000E+00  0.00000000E+00  0.00000000E+00
  0.00000000E+00  0.00000000E+00  0.00000000E+00
  0.00000000E+00  0.00000000E+00  0.00000000E+00
  0.00000000E+00  0.00000000E+00  0.00000000E+00
  0.00000000E+00  0.00000000E+00  0.00000000E+00
