Co2 F6                                  
   1.00000000000000     
     4.3687549904037768    0.0598139176388713    2.9260837073760686
     1.5937354708511600    4.0653033402647667    2.9194810066225645
     0.0359316689012025    0.0348329544675815    5.2772234695705595
   Co   F 
     2     6
Direct
  0.4999453062083745  0.5000386120670655  0.5000170176932954
  0.0000048867843603  0.0000066228730375  0.9999837502222988
  0.6328176224836355  0.2438083388743806  0.8769589062122947
  0.2560474708537654  0.8677927302734076  0.6230170107999129
  0.8680157131252386  0.6312156642292592  0.2510326814267785
  0.3670614530471852  0.7561073691993343  0.1230983763363582
  0.7440718821310526  0.1323221118072553  0.3767718232903405
  0.1320356653663808  0.3687085506762600  0.7491204340187352
 
  0.00000000E+00  0.00000000E+00  0.00000000E+00
  0.00000000E+00  0.00000000E+00  0.00000000E+00
  0.00000000E+00  0.00000000E+00  0.00000000E+00
  0.00000000E+00  0.00000000E+00  0.00000000E+00
  0.00000000E+00  0.00000000E+00  0.00000000E+00
  0.00000000E+00  0.00000000E+00  0.00000000E+00
  0.00000000E+00  0.00000000E+00  0.00000000E+00
  0.00000000E+00  0.00000000E+00  0.00000000E+00
