Co2 F6
1.0
4.425836 0.000000 2.877467
1.561362 4.141277 2.877467
0.000000 0.000000 5.279000
Co F
2 6
direct
0.500000 0.500000 0.500000 Co3+
0.000000 0.000000 0.000000 Co3+
0.650000 0.250000 0.850000 F-
0.250000 0.850000 0.650000 F-
0.850000 0.650000 0.250000 F-
0.350000 0.750000 0.150000 F-
0.750000 0.150000 0.350000 F-
0.150000 0.350000 0.750000 F-
