Ti2 F6                                  
   1.00000000000000     
     4.6878338201034699   -0.0053793575445738    2.8314614714527075
     1.5728703061188609    4.3474120016782631    2.8445505578464370
    -0.0231740460864879   -0.0158246231816512    5.5130153554548897
   Ti   F 
     2     6
Direct
  0.5000454286870400  0.5000259767196226  0.4999472212329116
  0.0000075521934986  0.0000132339245307  0.9999799695060284
  0.6807497480720948  0.2436735773600543  0.8307261506887905
  0.2536953731046552  0.8305062423095410  0.6681211162160103
  0.8305046130356063  0.6588045763751574  0.2470380403800757
  0.3192720800684929  0.7563655331018241  0.1692311067315976
  0.7462398344261215  0.1694264242285800  0.3319504385963556
  0.1694853704124906  0.3411844359806899  0.7530059566482302
 
  0.00000000E+00  0.00000000E+00  0.00000000E+00
  0.00000000E+00  0.00000000E+00  0.00000000E+00
  0.00000000E+00  0.00000000E+00  0.00000000E+00
  0.00000000E+00  0.00000000E+00  0.00000000E+00
  0.00000000E+00  0.00000000E+00  0.00000000E+00
  0.00000000E+00  0.00000000E+00  0.00000000E+00
  0.00000000E+00  0.00000000E+00  0.00000000E+00
  0.00000000E+00  0.00000000E+00  0.00000000E+00
