Co2 F4                                  
   1.00000000000000     
     4.6652509825409458    0.0000043150232379   -0.0000000212749722
     0.0000090304461124    4.6651408462351469    0.0000000004474803
    -0.0000000158227465   -0.0000000009687678    3.1883751899308508
   Co   F 
     2     4
Direct
  0.5000201845366732  0.5000071706712248  0.5000000026064910
  0.0000203308324203  0.9999926017389242  0.0000000002865121
  0.1962902827298407  0.8037122601310713  0.5000000008660308
  0.8036890613375789  0.1963297952139484  0.4999999981917895
  0.3036775407682484  0.3036510491317586  0.9999999763089988
  0.6963025997952386  0.6963071231130726  0.0000000217401777
 
  0.00000000E+00  0.00000000E+00  0.00000000E+00
  0.00000000E+00  0.00000000E+00  0.00000000E+00
  0.00000000E+00  0.00000000E+00  0.00000000E+00
  0.00000000E+00  0.00000000E+00  0.00000000E+00
  0.00000000E+00  0.00000000E+00  0.00000000E+00
  0.00000000E+00  0.00000000E+00  0.00000000E+00
