Sodium tetrafluorovanadate(III)         
   1.00000000000000     
     7.8962331397226482   -0.0000505401019266    0.0352866598602419
    -0.0000318440905066    5.2839332795056553   -0.0000226609133941
    -1.4694212842129395   -0.0000137300915118    7.4212187589341010
   Na   V    F 
     4     4    16
Direct
  0.3658931272018895  0.7854281852378211  0.1151051084440098
  0.6341085226780949  0.2145942172150774  0.8849298229771637
  0.6340902122179234  0.2854119479773579  0.3849232703085393
  0.3659006820630720  0.7145723653643442  0.6151087040766857
  0.1735950939569401  0.2563707330958758  0.3015968571793525
  0.8264264742378222  0.7436750481512364  0.6983399829005601
  0.8264316573808225  0.7563189567600057  0.1983410299762006
  0.1735994177722367  0.2436309724106225  0.8015987108424899
  0.1747482528283188  0.1218952902765118  0.0529126763181337
  0.8252578478302230  0.8780017274374858  0.9470897058414093
  0.8252581155323926  0.6219959323584173  0.4470915844239186
  0.1747430342758778  0.3781057852583380  0.5529117959164507
  0.0393204694539728  0.5595744672469934  0.2003699709307800
  0.9606552839479653  0.4404379574798101  0.7996168944851175
  0.9606602280252134  0.0595575478754961  0.2996186659251847
  0.0393239308084025  0.9404190933536755  0.7003691877844094
  0.3753722507913478  0.4611929028903826  0.3094774040766658
  0.6246671414331222  0.5387335087893457  0.6905141089149817
  0.6246724749192558  0.9612729948554505  0.1905094354417887
  0.3753745039038707  0.0388161426460563  0.8094733829691574
  0.3141515002546998  0.9737024182467722  0.3831613746798679
  0.6858011560450419  0.0262764486514663  0.6168884997537140
  0.6857997512954142  0.4737123024359978  0.1168916502004340
  0.3141488711460459  0.5263030689854503  0.8831601656329912
 
  0.00000000E+00  0.00000000E+00  0.00000000E+00
  0.00000000E+00  0.00000000E+00  0.00000000E+00
  0.00000000E+00  0.00000000E+00  0.00000000E+00
  0.00000000E+00  0.00000000E+00  0.00000000E+00
  0.00000000E+00  0.00000000E+00  0.00000000E+00
  0.00000000E+00  0.00000000E+00  0.00000000E+00
  0.00000000E+00  0.00000000E+00  0.00000000E+00
  0.00000000E+00  0.00000000E+00  0.00000000E+00
  0.00000000E+00  0.00000000E+00  0.00000000E+00
  0.00000000E+00  0.00000000E+00  0.00000000E+00
  0.00000000E+00  0.00000000E+00  0.00000000E+00
  0.00000000E+00  0.00000000E+00  0.00000000E+00
  0.00000000E+00  0.00000000E+00  0.00000000E+00
  0.00000000E+00  0.00000000E+00  0.00000000E+00
  0.00000000E+00  0.00000000E+00  0.00000000E+00
  0.00000000E+00  0.00000000E+00  0.00000000E+00
  0.00000000E+00  0.00000000E+00  0.00000000E+00
  0.00000000E+00  0.00000000E+00  0.00000000E+00
  0.00000000E+00  0.00000000E+00  0.00000000E+00
  0.00000000E+00  0.00000000E+00  0.00000000E+00
  0.00000000E+00  0.00000000E+00  0.00000000E+00
  0.00000000E+00  0.00000000E+00  0.00000000E+00
  0.00000000E+00  0.00000000E+00  0.00000000E+00
  0.00000000E+00  0.00000000E+00  0.00000000E+00
