Disodium pentafluoromanganate(III)      
   1.00000000000000     
     7.5998841827675285   -0.0000003138212949    0.0310566517795953
    -0.0000002073019763    5.1942524110049435   -0.0000007928913431
    -3.4456376161132898   -0.0000014696458862   10.1923436065174240
   Na   Mn   F 
     8     4    20
Direct
  0.1506353629632511  0.9911022140052953  0.3676591361215082
  0.8493604909740377  0.0089092332876603  0.6323314843897750
  0.8493606436663476  0.4910907204992401  0.1323316639600702
  0.1506354817520670  0.5088978107877407  0.8676593290588368
  0.3448962762449200  0.4387021701158359  0.1814235339401468
  0.6550927438735542  0.5612949985467521  0.8185807539410394
  0.6550926676920366  0.9387050148261317  0.3185807446353823
  0.3448962898547978  0.0612979198756683  0.6814235719447871
  0.0000183433152991  0.0000136657675773  0.0000008759177153
  0.0000178743138712  0.4999864669231048  0.5000012357804153
  0.5000165163028041  0.0000045609565136  0.0000188117166894
  0.5000165451531896  0.4999946521637174  0.5000190480992007
  0.0485548840532347  0.1571290056757736  0.1680475552579469
  0.9514489819481875  0.8428668411941066  0.8319352495927461
  0.9514488439756713  0.6571326595501400  0.3319356855797357
  0.0485547250874287  0.3428706396662950  0.6680480153205441
  0.8902274871736638  0.3041176966406549  0.9244318747661043
  0.1097557494027481  0.6959947436907497  0.0755423670900447
  0.1097555231186830  0.8040054543116192  0.5755426545946933
  0.8902274242312486  0.1958825100384884  0.4244321054309648
  0.2505605299888848  0.1674610501577786  0.0037649212577961
  0.7494239277146157  0.8325335632929129  0.9962340530042664
  0.7494237356732077  0.6674663022737674  0.4962340579370200
  0.2505604120029831  0.3325388862701948  0.5037649293925887
  0.6210797092320849  0.2204094975127616  0.1378501526270953
  0.3789275293190120  0.7795707487670496  0.8621642886496168
  0.3789272168416299  0.7204294514501181  0.3621641928290652
  0.6210793289211278  0.2795908021150067  0.6378501310274614
  0.4916528017808838  0.2510799325855044  0.8734832272053595
  0.5083497697824937  0.7489048149940994  0.1265302749906396
  0.5083496160297915  0.7510954549053228  0.6265305820859218
  0.4916525896162457  0.2489205021524431  0.3734834958548299
 
  0.00000000E+00  0.00000000E+00  0.00000000E+00
  0.00000000E+00  0.00000000E+00  0.00000000E+00
  0.00000000E+00  0.00000000E+00  0.00000000E+00
  0.00000000E+00  0.00000000E+00  0.00000000E+00
  0.00000000E+00  0.00000000E+00  0.00000000E+00
  0.00000000E+00  0.00000000E+00  0.00000000E+00
  0.00000000E+00  0.00000000E+00  0.00000000E+00
  0.00000000E+00  0.00000000E+00  0.00000000E+00
  0.00000000E+00  0.00000000E+00  0.00000000E+00
  0.00000000E+00  0.00000000E+00  0.00000000E+00
  0.00000000E+00  0.00000000E+00  0.00000000E+00
  0.00000000E+00  0.00000000E+00  0.00000000E+00
  0.00000000E+00  0.00000000E+00  0.00000000E+00
  0.00000000E+00  0.00000000E+00  0.00000000E+00
  0.00000000E+00  0.00000000E+00  0.00000000E+00
  0.00000000E+00  0.00000000E+00  0.00000000E+00
  0.00000000E+00  0.00000000E+00  0.00000000E+00
  0.00000000E+00  0.00000000E+00  0.00000000E+00
  0.00000000E+00  0.00000000E+00  0.00000000E+00
  0.00000000E+00  0.00000000E+00  0.00000000E+00
  0.00000000E+00  0.00000000E+00  0.00000000E+00
  0.00000000E+00  0.00000000E+00  0.00000000E+00
  0.00000000E+00  0.00000000E+00  0.00000000E+00
  0.00000000E+00  0.00000000E+00  0.00000000E+00
  0.00000000E+00  0.00000000E+00  0.00000000E+00
  0.00000000E+00  0.00000000E+00  0.00000000E+00
  0.00000000E+00  0.00000000E+00  0.00000000E+00
  0.00000000E+00  0.00000000E+00  0.00000000E+00
  0.00000000E+00  0.00000000E+00  0.00000000E+00
  0.00000000E+00  0.00000000E+00  0.00000000E+00
  0.00000000E+00  0.00000000E+00  0.00000000E+00
  0.00000000E+00  0.00000000E+00  0.00000000E+00
