Sodium trifluoroniccolate               
   1.00000000000000     
     5.0740151968488432   -0.0004457483009276    0.0000300526087839
    -0.0005780769708533    7.0281123260582401   -0.0014385617325719
     0.0001582751920803    0.0150496701786184    4.8064179242388576
   Ni   F 
     4    12
Direct
  0.5000068876717451  0.5000132351245711  0.0000561073961817
  0.0002036777539396  0.4997352991749776  0.5003361672682787
  0.4999030983201813  0.0000204803266545  0.0000605702999469
 -0.0000604861689279  0.0000398442945331  0.4999535586419551
  0.4671869359765418  0.2589087620477660  0.1264040546116719
  0.5327398147784786  0.7412811649315584  0.8734935401408991
  0.0327291515057870  0.7587661681504645  0.6263364525799487
  0.9671901994571260  0.2411406472983233  0.3734649693706177
  0.1965682456591740  0.5618944048234079  0.1709801571840510
  0.8034189319664028  0.4380098426631461  0.8290275007933082
  0.3200301742620494  0.4378614903196757  0.6905705755472443
  0.6803227115559989  0.5621660559648027  0.3094552299953117
  0.8198378333596323  0.0621534932963920  0.8093977310724585
  0.1800328417215433  0.9378723259575296  0.1904611850008713
  0.6964779736099439  0.9381288490594811  0.3290430705724155
  0.3034120085703766  0.0620079365667167  0.6709591215248456
 
  0.00000000E+00  0.00000000E+00  0.00000000E+00
  0.00000000E+00  0.00000000E+00  0.00000000E+00
  0.00000000E+00  0.00000000E+00  0.00000000E+00
  0.00000000E+00  0.00000000E+00  0.00000000E+00
  0.00000000E+00  0.00000000E+00  0.00000000E+00
  0.00000000E+00  0.00000000E+00  0.00000000E+00
  0.00000000E+00  0.00000000E+00  0.00000000E+00
  0.00000000E+00  0.00000000E+00  0.00000000E+00
  0.00000000E+00  0.00000000E+00  0.00000000E+00
  0.00000000E+00  0.00000000E+00  0.00000000E+00
  0.00000000E+00  0.00000000E+00  0.00000000E+00
  0.00000000E+00  0.00000000E+00  0.00000000E+00
  0.00000000E+00  0.00000000E+00  0.00000000E+00
  0.00000000E+00  0.00000000E+00  0.00000000E+00
  0.00000000E+00  0.00000000E+00  0.00000000E+00
  0.00000000E+00  0.00000000E+00  0.00000000E+00
