Mn2 F4                                  
   1.00000000000000     
     4.8503538373270167    0.0000002366066160   -0.0000000005715539
     0.0000002365582197    4.8503539407468388   -0.0000000096716218
    -0.0000000004855165   -0.0000000067639237    3.2957583927671354
   Mn   F 
     2     4
Direct
  0.4999999787537699  0.5000000131071830  0.4999999996144035
 -0.0000000477600931 -0.0000000345390349 -0.0000000003893956
  0.1954719599683591  0.8045280762268308  0.5000000002434942
  0.8045280761658825  0.1954719652647713  0.5000000002174974
  0.3045280846905870  0.3045280530125088 -0.0000000197229688
  0.6954719481814946  0.6954719269277411  0.0000000200369693
 
  0.00000000E+00  0.00000000E+00  0.00000000E+00
  0.00000000E+00  0.00000000E+00  0.00000000E+00
  0.00000000E+00  0.00000000E+00  0.00000000E+00
  0.00000000E+00  0.00000000E+00  0.00000000E+00
  0.00000000E+00  0.00000000E+00  0.00000000E+00
  0.00000000E+00  0.00000000E+00  0.00000000E+00
