Mn2 F4
1.0
4.873400 0.000000 0.000000
0.000000 4.873400 0.000000
0.000000 0.000000 3.309900
Mn F
2 4
direct
0.500000 0.500000 0.500000 Mn2+
0.000000 0.000000 0.000000 Mn2+
0.195000 0.805000 0.500000 F-
0.805000 0.195000 0.500000 F-
0.305000 0.305000 0.000000 F-
0.695000 0.695000 0.000000 F-
