Fe2 F6                                  
   1.00000000000000     
     4.5534148092937334    0.0001247776065679    2.8521342849873741
     1.5790128309199050    4.2708672603540094    2.8521342898614273
     0.0001785992699052    0.0001244098430162    5.3729187952104738
   Fe   F 
     2     6
Direct
  0.5000000328376260  0.4999999742616055  0.4999999580625243
  0.9999999701665132  0.0000000847925890  0.9999999431832691
  0.6603734787060702  0.2499999687036691  0.8396265782372794
  0.2500000369612749  0.8396265156121245  0.6603734093089457
  0.8396265279851605  0.6603733995385994  0.2500000397307005
  0.3396265672874463  0.7499999873118881  0.1603734599995832
  0.7499999382003182  0.1603735144285494  0.3396266081710166
  0.1603734478555907  0.3396265553509750  0.7500000033066883
 
  0.00000000E+00  0.00000000E+00  0.00000000E+00
  0.00000000E+00  0.00000000E+00  0.00000000E+00
  0.00000000E+00  0.00000000E+00  0.00000000E+00
  0.00000000E+00  0.00000000E+00  0.00000000E+00
  0.00000000E+00  0.00000000E+00  0.00000000E+00
  0.00000000E+00  0.00000000E+00  0.00000000E+00
  0.00000000E+00  0.00000000E+00  0.00000000E+00
  0.00000000E+00  0.00000000E+00  0.00000000E+00
