Co2 F6                                  
   1.00000000000000     
     4.3605103307273261   -0.0185247720372679    2.8022325401294998
     1.5191662118844234    4.0868097137629400    2.8039578965634524
    -0.0326972754970755   -0.0244816563711723    5.1856971264363878
   Co   F 
     2     6
Direct
  0.4996336660988815  0.4997176768529227  0.5001575654600312
  0.0001177348217857 -0.0003662268568706 -0.0001201229519515
  0.6322927403420783  0.2520199856747441  0.8687358566385115
  0.2521512592597842  0.8694144161408675  0.6317047918646524
  0.8686889028305915  0.6318470360798625  0.2526601601146640
  0.3677724637562583  0.7486677433377253  0.1309107518702314
  0.7489614219880701  0.1304432897854503  0.3678322931409007
  0.1303818109025502  0.3682560789852979  0.7481187038629602
 
  0.00000000E+00  0.00000000E+00  0.00000000E+00
  0.00000000E+00  0.00000000E+00  0.00000000E+00
  0.00000000E+00  0.00000000E+00  0.00000000E+00
  0.00000000E+00  0.00000000E+00  0.00000000E+00
  0.00000000E+00  0.00000000E+00  0.00000000E+00
  0.00000000E+00  0.00000000E+00  0.00000000E+00
  0.00000000E+00  0.00000000E+00  0.00000000E+00
  0.00000000E+00  0.00000000E+00  0.00000000E+00
