Mn8 F32                                 
   1.00000000000000     
     0.0023681982957568   -0.0011902666386776   -5.9466383891930796
    -6.3074256812709288   -6.3116194433398967   -2.9715598957756280
    -6.3124620259888236    6.3149314580008076   -2.9691692620531120
   Mn   F 
     8    32
Direct
  0.1164117828788847  0.7406584970730208  0.5006980690050966
  0.3552888551719491  0.7597955210453762  0.9998713127100345
  0.6143055147964063  0.0000809801047197  0.7402221747774433
  0.3563354186450951  0.4994474789158758  0.7592650240097711
  0.8836056512858264  0.2593830881217656  0.4992945006945675
  0.6446393512576662  0.2402137588203175  0.0001593705994196
  0.3857534716027189  0.9998814242531822  0.2597709954487897
  0.6436490331647491  0.5005501203686293  0.2407420037013068
  0.3038699142137133  0.5926605277597261  0.3562827042456220
  0.2526429963883672  0.9076224908431172  0.1442033411902273
  0.6591636548297473  0.1438441054763686  0.5921486358048185
  0.3970299565981321  0.3556295093399626  0.9072824540077065
  0.6961267804481039  0.4073756084253617  0.6436663161787095
  0.7473520049437994  0.0923949576158236  0.8557695551062849
  0.3409217106869491  0.8560859895866244  0.4078054395216526
  0.6030241191659158  0.6443127111722404  0.0926757931111197
  0.5079596213486326  0.3869443207838188  0.1476679712444380
  0.0429772695867428  0.1126516010391967  0.3520088583437442
  0.6544798324200940  0.3524036564789625  0.3865076748063103
  0.3952102398770236  0.1474046878122763  0.1132962494109648
  0.4919814209905269  0.6130256612148202  0.8523352683179510
  0.9571345654802599  0.8873164449651654  0.6479818273069000
  0.3454668959129279  0.6476072552275269  0.6134699049109003
  0.6048360865579525  0.8525866920584733  0.8866843437569472
  0.9327964150710599  0.8335621393792394  0.3905269294724789
  0.1551412052225558  0.6665460453945116  0.1099059341042050
  0.3210313371358069  0.1099067778587752  0.8336623566330630
  0.2655014818971253  0.3899639485848994  0.6657124222586930
  0.0672030428919541  0.1665104080511099  0.6095102715927112
  0.8447050547983537  0.3334979408023102  0.8901747675584133
  0.6790305717790517  0.8901348086493002  0.1662519477372300
  0.7344653155888210  0.6100986042811840  0.3342352119367433
  0.9262860926663592  0.6341934686206798  0.5928044752781503
  0.1512221332111139  0.8663201250438988  0.9073264210648944
  0.5174716160080308  0.9069813949772225  0.6337981529494812
  0.0602145192968351  0.5923672434538005  0.8658834300520724
  0.0737793913734777  0.3658613723010262  0.4071952981801701
  0.8486686056595758  0.1337036332936634  0.0927016793860247
  0.4825366145472429  0.0929264867675315  0.3662861184793798
  0.9397804546004451  0.4075485140385098  0.1342147951055779
 
  0.00000000E+00  0.00000000E+00  0.00000000E+00
  0.00000000E+00  0.00000000E+00  0.00000000E+00
  0.00000000E+00  0.00000000E+00  0.00000000E+00
  0.00000000E+00  0.00000000E+00  0.00000000E+00
  0.00000000E+00  0.00000000E+00  0.00000000E+00
  0.00000000E+00  0.00000000E+00  0.00000000E+00
  0.00000000E+00  0.00000000E+00  0.00000000E+00
  0.00000000E+00  0.00000000E+00  0.00000000E+00
  0.00000000E+00  0.00000000E+00  0.00000000E+00
  0.00000000E+00  0.00000000E+00  0.00000000E+00
  0.00000000E+00  0.00000000E+00  0.00000000E+00
  0.00000000E+00  0.00000000E+00  0.00000000E+00
  0.00000000E+00  0.00000000E+00  0.00000000E+00
  0.00000000E+00  0.00000000E+00  0.00000000E+00
  0.00000000E+00  0.00000000E+00  0.00000000E+00
  0.00000000E+00  0.00000000E+00  0.00000000E+00
  0.00000000E+00  0.00000000E+00  0.00000000E+00
  0.00000000E+00  0.00000000E+00  0.00000000E+00
  0.00000000E+00  0.00000000E+00  0.00000000E+00
  0.00000000E+00  0.00000000E+00  0.00000000E+00
  0.00000000E+00  0.00000000E+00  0.00000000E+00
  0.00000000E+00  0.00000000E+00  0.00000000E+00
  0.00000000E+00  0.00000000E+00  0.00000000E+00
  0.00000000E+00  0.00000000E+00  0.00000000E+00
  0.00000000E+00  0.00000000E+00  0.00000000E+00
  0.00000000E+00  0.00000000E+00  0.00000000E+00
  0.00000000E+00  0.00000000E+00  0.00000000E+00
  0.00000000E+00  0.00000000E+00  0.00000000E+00
  0.00000000E+00  0.00000000E+00  0.00000000E+00
  0.00000000E+00  0.00000000E+00  0.00000000E+00
  0.00000000E+00  0.00000000E+00  0.00000000E+00
  0.00000000E+00  0.00000000E+00  0.00000000E+00
  0.00000000E+00  0.00000000E+00  0.00000000E+00
  0.00000000E+00  0.00000000E+00  0.00000000E+00
  0.00000000E+00  0.00000000E+00  0.00000000E+00
  0.00000000E+00  0.00000000E+00  0.00000000E+00
  0.00000000E+00  0.00000000E+00  0.00000000E+00
  0.00000000E+00  0.00000000E+00  0.00000000E+00
  0.00000000E+00  0.00000000E+00  0.00000000E+00
  0.00000000E+00  0.00000000E+00  0.00000000E+00
