Cr2 F6                                  
   1.00000000000000     
     4.3876952698831886   -0.0131133036067170    2.8641284127517936
     1.5467369161025626    4.1059030494924791    2.8639606622749336
    -0.0172607763618740   -0.0124883055033416    5.2381239892634799
   Cr   F 
     2     6
Direct
  0.4999334384381304  0.4999451926633118  0.4999659334711182
 -0.0000730565255686 -0.0000760559536670 -0.0000181731144165
  0.6308096716651025  0.2508836240020379  0.8690567855842055
  0.2494276504091227  0.8693454611956759  0.6307069745977699
  0.8685625802437391  0.6313853918762912  0.2500560414442349
  0.3692192906079791  0.7493210117044709  0.1308333901791467
  0.7507505680662400  0.1306937212573448  0.3691814790766811
  0.1313698570952548  0.3685016532545344  0.7502175687612601
 
  0.00000000E+00  0.00000000E+00  0.00000000E+00
  0.00000000E+00  0.00000000E+00  0.00000000E+00
  0.00000000E+00  0.00000000E+00  0.00000000E+00
  0.00000000E+00  0.00000000E+00  0.00000000E+00
  0.00000000E+00  0.00000000E+00  0.00000000E+00
  0.00000000E+00  0.00000000E+00  0.00000000E+00
  0.00000000E+00  0.00000000E+00  0.00000000E+00
  0.00000000E+00  0.00000000E+00  0.00000000E+00
