V2 F8                                   
   1.00000000000000     
     4.5795229095462089   -0.0000000546779079    2.6400492973381025
    -0.0000001136787730    5.1590956791262332    0.0000000884876420
    -0.0395155850223936    0.0000001033127148    5.2713247246632493
   V    F 
     2     8
Direct
  0.4997701166201196  0.5000606564567320  0.5002004597450593
  0.9997701284506491  0.9999393460954096  0.0002004304048455
  0.8346062800578053  0.9097312056900293  0.7987315488142528
  0.3346063684799390  0.5902687978095429  0.2987314117986699
  0.1658260586086300  0.0902851619080423  0.2008750878650645
  0.6658259787061596  0.4097148392391432  0.7008752311692703
  0.3371561139321955  0.8011737582861258  0.7418411523363133
  0.8371562181298131  0.6988262615067811  0.2418412566479304
  0.6626414199461905  0.1986440842943793  0.2583517606529213
  0.1626413170685055  0.3013558887138146  0.7583516605656726
 
  0.00000000E+00  0.00000000E+00  0.00000000E+00
  0.00000000E+00  0.00000000E+00  0.00000000E+00
  0.00000000E+00  0.00000000E+00  0.00000000E+00
  0.00000000E+00  0.00000000E+00  0.00000000E+00
  0.00000000E+00  0.00000000E+00  0.00000000E+00
  0.00000000E+00  0.00000000E+00  0.00000000E+00
  0.00000000E+00  0.00000000E+00  0.00000000E+00
  0.00000000E+00  0.00000000E+00  0.00000000E+00
  0.00000000E+00  0.00000000E+00  0.00000000E+00
  0.00000000E+00  0.00000000E+00  0.00000000E+00
