Cr2 F6                                  
   1.00000000000000     
     4.4067735116539977   -0.0091153588771530    2.8884882915496366
     1.5558210488982993    4.1229982786377528    2.8884855295087650
    -0.0132127415253072   -0.0091208538800920    5.2690585267818504
   Cr   F 
     2     6
Direct
  0.4999989425099045  0.4999986735318913  0.5000023018844075
  0.9999988535767415  0.9999984491414509  0.0000023631436150
  0.6304235321474536  0.2500112881070393  0.8695885760265369
  0.2499877510429300  0.8695783099050800  0.6304099996472701
  0.8695714841271638  0.6304293976134190  0.2499994049970056
  0.3695781070720940  0.7499880667896264  0.1304092860740127
  0.7500104142062298  0.1304245293461292  0.3695892644232472
  0.1304309153174827  0.3695712855653639  0.7499988038039049
 
  0.00000000E+00  0.00000000E+00  0.00000000E+00
  0.00000000E+00  0.00000000E+00  0.00000000E+00
  0.00000000E+00  0.00000000E+00  0.00000000E+00
  0.00000000E+00  0.00000000E+00  0.00000000E+00
  0.00000000E+00  0.00000000E+00  0.00000000E+00
  0.00000000E+00  0.00000000E+00  0.00000000E+00
  0.00000000E+00  0.00000000E+00  0.00000000E+00
  0.00000000E+00  0.00000000E+00  0.00000000E+00
