Ti2 F6                                  
   1.00000000000000     
     4.7898117054760050   -0.0050063012579645    2.9019613285567010
     1.6110742325252831    4.4174109695064079    2.9080397165048151
    -0.0156205209776365   -0.0184964035675607    5.6377774214254464
   Ti   F 
     2     6
Direct
  0.5000093435845727  0.5000010486955446  0.4999984008099361
  0.0000090135189623  0.0000003782461278  0.0000003282009118
  0.6784245309935812  0.2440228544813579  0.8312203882306619
  0.2525055756869037  0.8326139757841418  0.6666202690633227
  0.8340172834391240  0.6573615832523956  0.2451392919295898
  0.3216172971004596  0.7560068841071654  0.1687355146465848
  0.7474028042629826  0.1673601068662549  0.3334208314705975
  0.1660141514134068  0.3426331685670050  0.7548649756484025
 
  0.00000000E+00  0.00000000E+00  0.00000000E+00
  0.00000000E+00  0.00000000E+00  0.00000000E+00
  0.00000000E+00  0.00000000E+00  0.00000000E+00
  0.00000000E+00  0.00000000E+00  0.00000000E+00
  0.00000000E+00  0.00000000E+00  0.00000000E+00
  0.00000000E+00  0.00000000E+00  0.00000000E+00
  0.00000000E+00  0.00000000E+00  0.00000000E+00
  0.00000000E+00  0.00000000E+00  0.00000000E+00
