Ti2 F6                                  
   1.00000000000000     
     4.7594131209818586    0.0098987457048825    2.8605807120725322
     1.6135188888225598    4.4646927971165686    2.8687056935181099
    -0.0264075624493035   -0.0241088132785752    5.5751017210080231
   Ti   F 
     2     6
Direct
  0.4999991111539768  0.5000289730678011  0.4999739021488394
 -0.0000069533061754 -0.0000295814013284  0.0000753113698735
  0.6758661869889739  0.2399546827190220  0.8278949295139203
  0.2511907140733668  0.8364036982589419  0.6625703248641036
  0.8302315411692758  0.6673288074182206  0.2390192429107576
  0.3243761514402714  0.7602690136040374  0.1719203893452830
  0.7486594300076721  0.1634486711937501  0.3374574990193058
  0.1696838184726388  0.3325957351395545  0.7610884008279166
 
  0.00000000E+00  0.00000000E+00  0.00000000E+00
  0.00000000E+00  0.00000000E+00  0.00000000E+00
  0.00000000E+00  0.00000000E+00  0.00000000E+00
  0.00000000E+00  0.00000000E+00  0.00000000E+00
  0.00000000E+00  0.00000000E+00  0.00000000E+00
  0.00000000E+00  0.00000000E+00  0.00000000E+00
  0.00000000E+00  0.00000000E+00  0.00000000E+00
  0.00000000E+00  0.00000000E+00  0.00000000E+00
