Ni2 F4                                  
   1.00000000000000     
     4.6180991271255234    0.0000001208419926   -0.0000000063572379
     0.0000001226453782    4.6183300566642398   -0.0000000088675913
    -0.0000000055396604   -0.0000000065474714    3.0516208877450692
   Ni   F 
     2     4
Direct
  0.4999518884247604  0.5000189246217255  0.4999999971650070
 -0.0000480706856097 -0.0000189541624317 -0.0000000046865792
  0.1976058506426105  0.8024278275613381  0.5000000024265399
  0.8024422466713097  0.1975027649457581  0.5000000029624908
  0.3024422323011164  0.3024972501883734 -0.0000000365737461
  0.6976058526458127  0.6975721868452365  0.0000000387062876
 
  0.00000000E+00  0.00000000E+00  0.00000000E+00
  0.00000000E+00  0.00000000E+00  0.00000000E+00
  0.00000000E+00  0.00000000E+00  0.00000000E+00
  0.00000000E+00  0.00000000E+00  0.00000000E+00
  0.00000000E+00  0.00000000E+00  0.00000000E+00
  0.00000000E+00  0.00000000E+00  0.00000000E+00
