Cr4 F16                                 
   1.00000000000000     
     8.1431366891016115    0.0000872034790833    0.0002048871695940
     0.0000872398946539    8.1375797758410098    0.0000692652506489
     0.0000791464570953    0.0000272840933951    3.7905334176030694
   Cr   F 
     4    16
Direct
  0.3645434551312419  0.6354455104460500  0.5000009454110276
  0.6354450167940254  0.3645585919440723  0.5000059784989421
  0.1354642555495779  0.1354422589104057 -0.0000066940776945
  0.8645613036565537  0.8645716912009700  0.0000041955981254
  0.6005732901275652  0.6006773222276920  0.4999519657561354
  0.3994180084770357  0.3993189411365110  0.5000417769691458
  0.8994202882725787  0.1006897302701219  0.0000229264821949
  0.1005779239131887  0.8993254765614969 -0.0000203846410246
  0.8738442158175295  0.8739213098972503  0.5000104944839175
  0.1261556854722553  0.1260898004966491  0.4999860077709268
  0.6261507575745490  0.3739098326100291 -0.0000033237215191
  0.3738401293913812  0.6260824457488042  0.0000028618790087
  0.1563829919648937  0.6094477110640386  0.5000258005665047
  0.8436227633386617  0.3905744537828514  0.5000043518856729
  0.3435909432507313  0.1094303598285719 -0.0000472880235618
  0.6563737350939524  0.8905666890956170  0.0000036796059855
  0.6095563135057810  0.1562382379827817  0.5000118946639996
  0.3904644434450924  0.8437504104577052  0.4999825874214681
  0.1095551552857792  0.3437231596250467 -0.0000034236246424
  0.8904593239376265  0.6562360667133350  0.0000256470953870
 
  0.00000000E+00  0.00000000E+00  0.00000000E+00
  0.00000000E+00  0.00000000E+00  0.00000000E+00
  0.00000000E+00  0.00000000E+00  0.00000000E+00
  0.00000000E+00  0.00000000E+00  0.00000000E+00
  0.00000000E+00  0.00000000E+00  0.00000000E+00
  0.00000000E+00  0.00000000E+00  0.00000000E+00
  0.00000000E+00  0.00000000E+00  0.00000000E+00
  0.00000000E+00  0.00000000E+00  0.00000000E+00
  0.00000000E+00  0.00000000E+00  0.00000000E+00
  0.00000000E+00  0.00000000E+00  0.00000000E+00
  0.00000000E+00  0.00000000E+00  0.00000000E+00
  0.00000000E+00  0.00000000E+00  0.00000000E+00
  0.00000000E+00  0.00000000E+00  0.00000000E+00
  0.00000000E+00  0.00000000E+00  0.00000000E+00
  0.00000000E+00  0.00000000E+00  0.00000000E+00
  0.00000000E+00  0.00000000E+00  0.00000000E+00
  0.00000000E+00  0.00000000E+00  0.00000000E+00
  0.00000000E+00  0.00000000E+00  0.00000000E+00
  0.00000000E+00  0.00000000E+00  0.00000000E+00
  0.00000000E+00  0.00000000E+00  0.00000000E+00
