Sodium trifluoroniccolate               
   1.00000000000000     
     5.5131202650619846    0.0000003706917034    0.0000002255557299
     0.0000004604480656    7.6013121642059360    0.0000004124230437
     0.0000002379961469    0.0000002869952767    5.2979384449284801
   Na   Ni   F 
     4     4    12
Direct
  0.0615713612736499  0.2500000259831481  0.9826753551733844
  0.9384188505162427  0.7500000971569492  0.0173166639817097
  0.4384187760263245  0.7499998980604516  0.4826834134467859
  0.5615710134505676  0.2500001688006321  0.5173246075964002
  0.5000031026302452  0.5000212942236857  0.0000098516199927
  0.0000028941943953  0.5000227809277931  0.4999898886578862
  0.5000026738514265  0.9999786901121581  0.0000100182392018
  0.0000031290862168  0.9999787275824374  0.4999899525909797
  0.4620136061725475  0.2499999020885255  0.1080641192460803
  0.5379709725894983  0.7499998508561063  0.8919507542210781
  0.0379710005026652  0.7499996561663238  0.6080490592607077
  0.9620134644213465  0.2499991725812194  0.3919359435050112
  0.1974270733466668  0.5553836361097026  0.1927123393667429
  0.8025822256383037  0.4446161275773761  0.8072906221173852
  0.3025825256930332  0.4446161231400652  0.6927095155790610
  0.6974275768458753  0.5553835807632481  0.3072878169971318
  0.8025826888616550  0.0553837143383191  0.8072904705948218
  0.1974272369625680  0.9446164300474607  0.1927123746578374
  0.6974279632188143  0.9446164204586438  0.3072879066988392
  0.3025818527179567  0.0553837030257682  0.6927093254489733
 
  0.00000000E+00  0.00000000E+00  0.00000000E+00
  0.00000000E+00  0.00000000E+00  0.00000000E+00
  0.00000000E+00  0.00000000E+00  0.00000000E+00
  0.00000000E+00  0.00000000E+00  0.00000000E+00
  0.00000000E+00  0.00000000E+00  0.00000000E+00
  0.00000000E+00  0.00000000E+00  0.00000000E+00
  0.00000000E+00  0.00000000E+00  0.00000000E+00
  0.00000000E+00  0.00000000E+00  0.00000000E+00
  0.00000000E+00  0.00000000E+00  0.00000000E+00
  0.00000000E+00  0.00000000E+00  0.00000000E+00
  0.00000000E+00  0.00000000E+00  0.00000000E+00
  0.00000000E+00  0.00000000E+00  0.00000000E+00
  0.00000000E+00  0.00000000E+00  0.00000000E+00
  0.00000000E+00  0.00000000E+00  0.00000000E+00
  0.00000000E+00  0.00000000E+00  0.00000000E+00
  0.00000000E+00  0.00000000E+00  0.00000000E+00
  0.00000000E+00  0.00000000E+00  0.00000000E+00
  0.00000000E+00  0.00000000E+00  0.00000000E+00
  0.00000000E+00  0.00000000E+00  0.00000000E+00
  0.00000000E+00  0.00000000E+00  0.00000000E+00
