Fe2 F4                                  
   1.00000000000000     
     4.6944999999999997    0.0000000000000000    0.0000000000000000
     0.0000000000000000    4.6944999999999997    0.0000000000000000
     0.0000000000000000    0.0000000000000000    3.3096999999999999
   Fe   Fe   F 
     1     1     4
Direct
  0.5000704716817459  0.5000046798917035  0.5000000196943558
  0.0000705355545207 -0.0000048029878526 -0.0000000037864339
  0.2003343968646639  0.7996847493801076  0.4999999737801505
  0.7995950985194149  0.2004015890604764  0.5000000194460730
  0.2995951650542796  0.2995985975987309 -0.0000000349850534
  0.7003343323253751  0.7003151870568343  0.0000000258509080
 
  0.00000000E+00  0.00000000E+00  0.00000000E+00
  0.00000000E+00  0.00000000E+00  0.00000000E+00
  0.00000000E+00  0.00000000E+00  0.00000000E+00
  0.00000000E+00  0.00000000E+00  0.00000000E+00
  0.00000000E+00  0.00000000E+00  0.00000000E+00
  0.00000000E+00  0.00000000E+00  0.00000000E+00
