Fe2 F4
1.0
4.694500 0.000000 0.000000
0.000000 4.694500 0.000000
0.000000 0.000000 3.309700
Fe Fe F
1  1   4
direct
0.500000 0.500000 0.500000 Fe2+
0.000000 0.000000 0.000000 Fe2+
0.199000 0.801000 0.500000 F-
0.801000 0.199000 0.500000 F-
0.301000 0.301000 0.000000 F-
0.699000 0.699000 0.000000 F-
