Na3 Co4 F12                             
   1.00000000000000     
     5.5162248349578560    0.0100588930954415   -0.0056727260226668
     0.0136144397299349    7.6563902991478692    0.0298882124343177
    -0.0053416770984425    0.0218247803137720    5.3339990288509780
   Na   Co   F 
     3     4    12
Direct
  0.0605373015961580  0.2465741677969795  0.9781750015063422
  0.4379713192218460  0.7470245456307797  0.4840260587217296
  0.9439754354674961  0.7536115280111610  0.0125246995383748
  0.9961245858842996  0.4958643800354957  0.4998304867328000
  0.5015656604335497  0.0054919402841825  0.9973197483603227
  0.9926427745135910  0.0057223546127702  0.4986062978435447
  0.5022598006846327  0.4953115618289454  0.0008625433098351
  0.9714909178753498  0.2516497158445074  0.3892545817303918
  0.4610307927559686  0.2509124263692767  0.0957329149858789
  0.0291619701099568  0.7497275057459254  0.5980346336929410
  0.5318456324890593  0.7491722957134281  0.8956205133840313
  0.7058216875493957  0.5634352636146625  0.2952349024361854
  0.2018885979122315  0.9465201543462026  0.1993991733050940
  0.2902346560267922  0.0443348011961947  0.7040790920547393
  0.8118697987520868  0.4533742987760851  0.8161491281342902
  0.2930283688644042  0.4551527136554309  0.7053350556586987
  0.8127840680603809  0.0403196088253659  0.8176458353226190
  0.7044075077748876  0.9371370440621751  0.2949756821173152
  0.2032591240279155  0.5586636936504232  0.2002936511648731
 
  0.00000000E+00  0.00000000E+00  0.00000000E+00
  0.00000000E+00  0.00000000E+00  0.00000000E+00
  0.00000000E+00  0.00000000E+00  0.00000000E+00
  0.00000000E+00  0.00000000E+00  0.00000000E+00
  0.00000000E+00  0.00000000E+00  0.00000000E+00
  0.00000000E+00  0.00000000E+00  0.00000000E+00
  0.00000000E+00  0.00000000E+00  0.00000000E+00
  0.00000000E+00  0.00000000E+00  0.00000000E+00
  0.00000000E+00  0.00000000E+00  0.00000000E+00
  0.00000000E+00  0.00000000E+00  0.00000000E+00
  0.00000000E+00  0.00000000E+00  0.00000000E+00
  0.00000000E+00  0.00000000E+00  0.00000000E+00
  0.00000000E+00  0.00000000E+00  0.00000000E+00
  0.00000000E+00  0.00000000E+00  0.00000000E+00
  0.00000000E+00  0.00000000E+00  0.00000000E+00
  0.00000000E+00  0.00000000E+00  0.00000000E+00
  0.00000000E+00  0.00000000E+00  0.00000000E+00
  0.00000000E+00  0.00000000E+00  0.00000000E+00
  0.00000000E+00  0.00000000E+00  0.00000000E+00
