Cr2 F4                                  
   1.00000000000000     
     4.6698621493051258    0.0000012048295944   -0.5017441959151606
     0.0000006652488860    4.6790732777296071   -0.0000048594233000
     0.0244632342520161   -0.0000035696270888    3.5237078978368515
   Cr   F 
     2     4
Direct
  0.5000836409452484  0.5000920114645553  0.4999192016390248
  0.0000833078786187 -0.0000909590808936 -0.0000775960598061
  0.1985655982317237  0.8013237850383705  0.4584648433472842
  0.6985655661952402  0.6986758098606068  0.9584642471639301
  0.8013509972133244  0.1986831558026106  0.5416151821470752
  0.3013508895358445  0.3013161969147501  0.0416141217624918
 
  0.00000000E+00  0.00000000E+00  0.00000000E+00
  0.00000000E+00  0.00000000E+00  0.00000000E+00
  0.00000000E+00  0.00000000E+00  0.00000000E+00
  0.00000000E+00  0.00000000E+00  0.00000000E+00
  0.00000000E+00  0.00000000E+00  0.00000000E+00
  0.00000000E+00  0.00000000E+00  0.00000000E+00
