Cr2 F4
1.0
4.701395 0.000000 -0.537319
0.000000 4.718000 0.000000
0.000000 0.000000 3.505000
Cr F
2 4
direct
0.500000 0.500000 0.500000 Cr2+
0.000000 0.000000 0.000000 Cr2+
0.203000 0.797000 0.456000 F-
0.703000 0.703000 0.956000 F-
0.797000 0.203000 0.544000 F-
0.297000 0.297000 0.044000 F-
