Co2 F4                                  
   1.00000000000000     
     4.6541708043982197    0.0000184777957701    0.0000001532264404
    -0.0000133039333486    4.6533646310252879    0.0000000703746801
     0.0000001135642597    0.0000000482840229    3.1822595348333342
   Co   F 
     2     4
Direct
  0.5000572235027523  0.5000093958430141  0.5000000026651233
  0.0000558091855891 -0.0000111331364731  0.0000000089879960
  0.1960860764402242  0.8040106928944295  0.4999999923281460
  0.8038566476699479  0.1961581737856285  0.4999999999456044
  0.3038550505275461  0.3038445059883058 -0.0000000093702746
  0.6960891926739404  0.6959883646250953  0.0000000054434051
 
  0.00000000E+00  0.00000000E+00  0.00000000E+00
  0.00000000E+00  0.00000000E+00  0.00000000E+00
  0.00000000E+00  0.00000000E+00  0.00000000E+00
  0.00000000E+00  0.00000000E+00  0.00000000E+00
  0.00000000E+00  0.00000000E+00  0.00000000E+00
  0.00000000E+00  0.00000000E+00  0.00000000E+00
