Co2 F4
1.0
4.695400 0.000000 0.000000
0.000000 4.695400 0.000000
0.000000 0.000000 3.177400
Co F
2 4
direct
0.500000 0.500000 0.500000 Co2+
0.000000 0.000000 0.000000 Co2+
0.194800 0.805200 0.500000 F-
0.805200 0.194800 0.500000 F-
0.305200 0.305200 0.000000 F-
0.694800 0.694800 0.000000 F-
