V2 F8                                   
   1.00000000000000     
     4.6253270475400594    0.0000010741992601    2.6715654289498216
     0.0000002642809032    5.2042913902151069    0.0000016885003275
    -0.0419646442057734    0.0000016931806181    5.3323747802420209
   V    F 
     2     8
Direct
  0.5000011079611753  0.4999964381417428  0.4999982303098847
  0.0000010488739690  0.0000035276323018  0.9999981290370030
  0.8346289635622028  0.9093633960778575  0.7990635569478712
  0.3346294346922107  0.5906363691616079  0.2990640499078623
  0.1653670927757815  0.0906343184497231  0.2009402754059266
  0.6653665600470902  0.4093659489871655  0.7009397134279141
  0.3368353636631127  0.8007553704483641  0.7418164993858909
  0.8368351410693506  0.6992444340849957  0.2418168892852393
  0.6631675338416869  0.1992475776482507  0.2581815205009690
  0.1631677535134202  0.3007526193679766  0.7581811357914319
 
  0.00000000E+00  0.00000000E+00  0.00000000E+00
  0.00000000E+00  0.00000000E+00  0.00000000E+00
  0.00000000E+00  0.00000000E+00  0.00000000E+00
  0.00000000E+00  0.00000000E+00  0.00000000E+00
  0.00000000E+00  0.00000000E+00  0.00000000E+00
  0.00000000E+00  0.00000000E+00  0.00000000E+00
  0.00000000E+00  0.00000000E+00  0.00000000E+00
  0.00000000E+00  0.00000000E+00  0.00000000E+00
  0.00000000E+00  0.00000000E+00  0.00000000E+00
  0.00000000E+00  0.00000000E+00  0.00000000E+00
