V2 F8
1.0
4.647826 0.000000 2.711619
-0.000000 5.170000 0.000000
0.000000 0.000000 5.340000
V F
2 8
direct
0.500000 0.500000 0.500000 V4+
0.000000 0.000000 0.000000 V4+
0.838600 0.914200 0.809500 F-
0.338600 0.585800 0.309500 F-
0.161400 0.085800 0.190500 F-
0.661400 0.414200 0.690500 F-
0.330700 0.797600 0.743800 F-
0.830700 0.702400 0.243800 F-
0.669300 0.202400 0.256200 F-
0.169300 0.297600 0.756200 F-
