Mn2 F6                                  
   1.00000000000000     
     9.9407670942308961   -0.0006230119273622   -0.0001240348007881
     2.4849179299370494    4.4528450088435862    0.0030198208505828
     2.4850585908437406    1.2732340644019089    4.4988732446102127
   Mn   F 
     4    12
Direct
  0.2500023377563636  0.5000021309394285  0.4999954024978237
  0.7499996403410805  0.5000020436624766  0.4999986832800403
  0.0000009007339088  0.9999972356705058  0.0000035648036487
  0.5000006693422279  0.9999974363012640  0.0000034267643017
  0.1881719996974809  0.7499762867803526  0.7499750177564195
  0.6881724458884406  0.7499756121511965  0.7499742593505871
  0.3118281162301884  0.2500237265426364  0.2500261289654659
  0.8118284783672820  0.2500231708857399  0.2500254776086877
  0.3823452421338374  0.1137255685865597  0.7624147409991053
  0.8823453694114107  0.1137254298134991  0.7624148266004980
  0.0704149759440256  0.3862182765661188  0.7376110719310773
  0.5704160326900265  0.3862188630869525  0.7376096933588485
  0.1176531777331107  0.8862765802630932  0.2375852632888638
  0.6176534427853042  0.8862762938188098  0.2375855975206349
  0.4295830502983620  0.6137803801894179  0.2623890862238270
  0.9295840606469383  0.6137809347419463  0.2623877590501849
 
  0.00000000E+00  0.00000000E+00  0.00000000E+00
  0.00000000E+00  0.00000000E+00  0.00000000E+00
  0.00000000E+00  0.00000000E+00  0.00000000E+00
  0.00000000E+00  0.00000000E+00  0.00000000E+00
  0.00000000E+00  0.00000000E+00  0.00000000E+00
  0.00000000E+00  0.00000000E+00  0.00000000E+00
  0.00000000E+00  0.00000000E+00  0.00000000E+00
  0.00000000E+00  0.00000000E+00  0.00000000E+00
  0.00000000E+00  0.00000000E+00  0.00000000E+00
  0.00000000E+00  0.00000000E+00  0.00000000E+00
  0.00000000E+00  0.00000000E+00  0.00000000E+00
  0.00000000E+00  0.00000000E+00  0.00000000E+00
  0.00000000E+00  0.00000000E+00  0.00000000E+00
  0.00000000E+00  0.00000000E+00  0.00000000E+00
  0.00000000E+00  0.00000000E+00  0.00000000E+00
  0.00000000E+00  0.00000000E+00  0.00000000E+00
