V2 F8                                   
   1.00000000000000     
     4.6085768544642054   -0.0000001899895300    2.6324226807620557
    -0.0000001956489425    5.1858900921481936    0.0000000133252268
    -0.0494939476313142    0.0000000151377366    5.2739717453534301
   V    F 
     2     8
Direct
  0.4998392958712898  0.5000256379270596  0.5000589837808675
  0.9998393295929020  0.9999743892253292  0.0000590436212846
  0.8333484296018767  0.9091771646944693  0.7975776687310159
  0.3333485343638145  0.5908228157578250  0.2975775835326004
  0.1669254594973779  0.0907763235125287  0.2022079691393159
  0.6669253878421912  0.4092236694136560  0.7022080974614724
  0.3367856421722308  0.8011517455275907  0.7424498978763836
  0.8367856971639611  0.6988482956472595  0.2424500141439765
  0.6631011458753449  0.1986934991863833  0.2577054224897708
  0.1631010780190252  0.3013064591078916  0.7577053192233052
 
  0.00000000E+00  0.00000000E+00  0.00000000E+00
  0.00000000E+00  0.00000000E+00  0.00000000E+00
  0.00000000E+00  0.00000000E+00  0.00000000E+00
  0.00000000E+00  0.00000000E+00  0.00000000E+00
  0.00000000E+00  0.00000000E+00  0.00000000E+00
  0.00000000E+00  0.00000000E+00  0.00000000E+00
  0.00000000E+00  0.00000000E+00  0.00000000E+00
  0.00000000E+00  0.00000000E+00  0.00000000E+00
  0.00000000E+00  0.00000000E+00  0.00000000E+00
  0.00000000E+00  0.00000000E+00  0.00000000E+00
