Fe2 F4                                  
   1.00000000000000     
     4.6846822492906410   -0.0000013909454956   -0.0000002033463541
    -0.0000013956957635    4.6850623682708212   -0.0000003311648168
     0.0000000206930093   -0.0000004829157771    3.2965505183706516
   Fe   F 
     2     4
Direct
  0.5000447172103639  0.4999905066760458  0.5000000087437735
  0.0000446252311850  0.0000095359049829  0.0000000069706330
  0.1989843138012728  0.8010199761323076  0.4999998307319770
  0.8009710107050264  0.1990292232722471  0.5000001567903386
  0.3009710475599954  0.3009706960813238 -0.0000000882331999
  0.6989842854921565  0.6989800619330927  0.0000000849964778
 
  0.00000000E+00  0.00000000E+00  0.00000000E+00
  0.00000000E+00  0.00000000E+00  0.00000000E+00
  0.00000000E+00  0.00000000E+00  0.00000000E+00
  0.00000000E+00  0.00000000E+00  0.00000000E+00
  0.00000000E+00  0.00000000E+00  0.00000000E+00
  0.00000000E+00  0.00000000E+00  0.00000000E+00
