Ti12 F48                                
   1.00000000000000     
    22.2584503673667236    0.0000000031257103   -0.0000077002954685
    -0.0000000093431697    3.8617896688215132   -0.0000000000263120
    -0.0000032714398161    0.0000000247752379    9.4735687744390003
   Ti   F 
    12    48
Direct
  0.7358527976884872  0.2500000059497793  0.8022047834355206
  0.2358528004940865  0.2499999998025970  0.6977951961274655
  0.2641442014432087  0.7500000032991991  0.1978021105236323
  0.7641441947279759  0.7500000055779452  0.3021977665153628
  0.0983112647221915  0.2499998971507367  0.4459215957249327
  0.5983112694160866  0.2500000508775173  0.0540783046896465
  0.9016846051961167  0.7499999087870322  0.5540753466145674
  0.4016846015108726  0.7500000417254000  0.9459246491487008
  0.5736399465143620  0.2500000134126665  0.6480472167653275
  0.0736399506697651  0.2499999879486481  0.8519526906918244
  0.4263602500623023  0.7500000081826244  0.3519580842551306
  0.9263602590354765  0.7500000107638130  0.1480418818541338
  0.2719681576541078  0.2500000049419242  0.1958777024023419
  0.7719681633217732  0.2500000033316141  0.3041221742462099
  0.7280378595741439  0.7500000037508343  0.8041210114860888
  0.2280378412260617  0.7500000008135075  0.6958789421522837
  0.9213170083005480  0.2500000087266727  0.1650542631400498
  0.4213170152176033  0.2500000105777644  0.3349456425952724
  0.0786922401193308  0.7499999876713659  0.8349370972142722
  0.5786922427450563  0.7500000154621631  0.6650628234305671
  0.0239489648419777  0.2499999845438836  0.3830603543213158
  0.5239489477841275  0.2500000100121866  0.1169395699476468
  0.9760530117049697  0.7499999896296003  0.6169208801334420
  0.4760529869249552  0.7500000147204418  0.8830791462922676
  0.5906645355703404  0.2500000119096200  0.4685658170029043
  0.0906644594628361  0.2500000006351470  0.0314340788090988
  0.4093350405150744  0.7500000064294312  0.5314437619627341
  0.9093350920174075  0.7500000063961920  0.9685561392747459
  0.6607499360467131  0.2500000046822350  0.6904129698251893
  0.1607499292246217  0.2499999972432150  0.8095869941143192
  0.3392525794740706  0.7500000046874433  0.3095845262033237
  0.8392508822383036  0.7500000088247063  0.1904172556137311
  0.8995197766658762  0.2499999548715621  0.5365061950784025
  0.3995197837604749  0.2500000240574067  0.9634938087073621
  0.1004801790389038  0.7499999491562335  0.4634789953552456
  0.6004801697131086  0.7500000253143284  0.0365209264053021
  0.7760508423399486  0.2500000010417764  0.6423681539974453
  0.2760508232274788  0.2499999969601205  0.8576319020497039
  0.2239506571966530  0.7500000037052388  0.3576343330251248
  0.7239506803825577  0.7500000040124633  0.1423654400160430
  0.1374800091162243  0.2499999957482473  0.2856094949905028
  0.6374800261114473  0.2500000073770394  0.2143904462868136
  0.8625249067239906  0.7499999930096521  0.7143963024326467
  0.3625249060481082  0.7500000175111197  0.7856036808986175
  0.6765138915702167  0.2499999947732121  0.9554518967627885
  0.1765138906404502  0.2499999901401040  0.5445480491529366
  0.3234810787880065  0.7500000065656351  0.0445374442929065
  0.8234810807858466  0.7499999931922048  0.4554625170448432
  0.7946728158638052  0.2500000011836789  0.9255023756406260
  0.2946728399491434  0.2499999997248139  0.5744977030483014
  0.2053216577547516  0.7500000073866318  0.0745185556459091
  0.7053216232673023  0.7500000032589966  0.4254812591342301
  0.4947838758262080  0.2500000092672821  0.6370341031155746
  0.9947838774852968  0.2499999951859593  0.8629656109661710
  0.5052160883343220  0.7500000123233903  0.3629468031142551
  0.0052160979257820  0.7500000041500456  0.1370533502848872
  0.0697552897076150  0.2499999848772418  0.6426176819104796
  0.5697552779142541  0.2500000088331973  0.8573821901578285
  0.9302373977734675  0.7499999946164948  0.3573797045186353
  0.4302374206438060  0.7500000132879947  0.1426202994523678
 
  0.00000000E+00  0.00000000E+00  0.00000000E+00
  0.00000000E+00  0.00000000E+00  0.00000000E+00
  0.00000000E+00  0.00000000E+00  0.00000000E+00
  0.00000000E+00  0.00000000E+00  0.00000000E+00
  0.00000000E+00  0.00000000E+00  0.00000000E+00
  0.00000000E+00  0.00000000E+00  0.00000000E+00
  0.00000000E+00  0.00000000E+00  0.00000000E+00
  0.00000000E+00  0.00000000E+00  0.00000000E+00
  0.00000000E+00  0.00000000E+00  0.00000000E+00
  0.00000000E+00  0.00000000E+00  0.00000000E+00
  0.00000000E+00  0.00000000E+00  0.00000000E+00
  0.00000000E+00  0.00000000E+00  0.00000000E+00
  0.00000000E+00  0.00000000E+00  0.00000000E+00
  0.00000000E+00  0.00000000E+00  0.00000000E+00
  0.00000000E+00  0.00000000E+00  0.00000000E+00
  0.00000000E+00  0.00000000E+00  0.00000000E+00
  0.00000000E+00  0.00000000E+00  0.00000000E+00
  0.00000000E+00  0.00000000E+00  0.00000000E+00
  0.00000000E+00  0.00000000E+00  0.00000000E+00
  0.00000000E+00  0.00000000E+00  0.00000000E+00
  0.00000000E+00  0.00000000E+00  0.00000000E+00
  0.00000000E+00  0.00000000E+00  0.00000000E+00
  0.00000000E+00  0.00000000E+00  0.00000000E+00
  0.00000000E+00  0.00000000E+00  0.00000000E+00
  0.00000000E+00  0.00000000E+00  0.00000000E+00
  0.00000000E+00  0.00000000E+00  0.00000000E+00
  0.00000000E+00  0.00000000E+00  0.00000000E+00
  0.00000000E+00  0.00000000E+00  0.00000000E+00
  0.00000000E+00  0.00000000E+00  0.00000000E+00
  0.00000000E+00  0.00000000E+00  0.00000000E+00
  0.00000000E+00  0.00000000E+00  0.00000000E+00
  0.00000000E+00  0.00000000E+00  0.00000000E+00
  0.00000000E+00  0.00000000E+00  0.00000000E+00
  0.00000000E+00  0.00000000E+00  0.00000000E+00
  0.00000000E+00  0.00000000E+00  0.00000000E+00
  0.00000000E+00  0.00000000E+00  0.00000000E+00
  0.00000000E+00  0.00000000E+00  0.00000000E+00
  0.00000000E+00  0.00000000E+00  0.00000000E+00
  0.00000000E+00  0.00000000E+00  0.00000000E+00
  0.00000000E+00  0.00000000E+00  0.00000000E+00
  0.00000000E+00  0.00000000E+00  0.00000000E+00
  0.00000000E+00  0.00000000E+00  0.00000000E+00
  0.00000000E+00  0.00000000E+00  0.00000000E+00
  0.00000000E+00  0.00000000E+00  0.00000000E+00
  0.00000000E+00  0.00000000E+00  0.00000000E+00
  0.00000000E+00  0.00000000E+00  0.00000000E+00
  0.00000000E+00  0.00000000E+00  0.00000000E+00
  0.00000000E+00  0.00000000E+00  0.00000000E+00
  0.00000000E+00  0.00000000E+00  0.00000000E+00
  0.00000000E+00  0.00000000E+00  0.00000000E+00
  0.00000000E+00  0.00000000E+00  0.00000000E+00
  0.00000000E+00  0.00000000E+00  0.00000000E+00
  0.00000000E+00  0.00000000E+00  0.00000000E+00
  0.00000000E+00  0.00000000E+00  0.00000000E+00
  0.00000000E+00  0.00000000E+00  0.00000000E+00
  0.00000000E+00  0.00000000E+00  0.00000000E+00
  0.00000000E+00  0.00000000E+00  0.00000000E+00
  0.00000000E+00  0.00000000E+00  0.00000000E+00
  0.00000000E+00  0.00000000E+00  0.00000000E+00
  0.00000000E+00  0.00000000E+00  0.00000000E+00
