Sodium hexafluorochromate(V) - I        
   1.00000000000000     
     9.3303084787898669   -0.0000007169380446   -0.0000885623251017
     0.0000765868322376    5.7845246357256244    0.0018058485596926
    -0.0000588493190485   -0.0041518462305458    7.5255832018876436
   Na   Cr   F 
     4     4    24
Direct
  0.9969381460584222  0.7499474765593436  0.6641018872767948
  0.0030432838516497  0.2500926450123931  0.3358925062969244
  0.5030454145260618  0.2498701267995624  0.1640995621240600
  0.4969595985418022  0.7500828619281019  0.8358679916869995
  0.7284253636774271  0.2503826178946312  0.6154393156599132
  0.2715759035086290  0.7495395719694771  0.3846064906551158
  0.7716171749402563  0.7504530966470069  0.1153723843673164
  0.2284350590420369  0.2496428828823391  0.8845809543865586
  0.6040341003783254  0.4690003810053750  0.6724272564238708
  0.3957810087191975  0.5306710303977190  0.3277484226943437
  0.8958007034625979  0.5316704748832827  0.1742385871654688
  0.1043148818491619  0.4686097211973143  0.8259010681831475
  0.3957686307758594  0.9682725374103552  0.3257163564984836
  0.6043114429475424  0.0314357141009318  0.6741606178255751
  0.1040446605785554  0.0310252640577935  0.8275651605585910
  0.8958398282212965  0.9692953443521503  0.1722357220388173
  0.6630188475660364  0.2502646638287114  0.3953808049793948
  0.3369891143392308  0.7496659419648498  0.6046483792949545
  0.8370203556820186  0.7503159462640276  0.8953209299791404
  0.1630411727722370  0.2496921107891080  0.1046465736650686
  0.8583710376987909  0.0353091605601312  0.5473109059671243
  0.1416636014628379  0.9647295772321778  0.4526582776462093
  0.6413261851693768  0.9652847677778272  0.0480156216553243
  0.3586513466608960  0.0346590950368813  0.9519459879807163
  0.1412727698953544  0.5347391117301725  0.4519796975908986
  0.8586215491464370  0.4653127856404873  0.5480647206975103
  0.3583636013696975  0.4646689188788212  0.9527243705760801
  0.6416839959832324  0.5352905789917172  0.0473528906469437
  0.8041273084816980  0.2486670347594851  0.8241350248203534
  0.1958609702628498  0.7513053589169096  0.1758699633734704
  0.6959241881833790  0.7487155724192708  0.3241034338280943
  0.3041287542470915  0.2513876581116334  0.6758881334567293
 
  0.00000000E+00  0.00000000E+00  0.00000000E+00
  0.00000000E+00  0.00000000E+00  0.00000000E+00
  0.00000000E+00  0.00000000E+00  0.00000000E+00
  0.00000000E+00  0.00000000E+00  0.00000000E+00
  0.00000000E+00  0.00000000E+00  0.00000000E+00
  0.00000000E+00  0.00000000E+00  0.00000000E+00
  0.00000000E+00  0.00000000E+00  0.00000000E+00
  0.00000000E+00  0.00000000E+00  0.00000000E+00
  0.00000000E+00  0.00000000E+00  0.00000000E+00
  0.00000000E+00  0.00000000E+00  0.00000000E+00
  0.00000000E+00  0.00000000E+00  0.00000000E+00
  0.00000000E+00  0.00000000E+00  0.00000000E+00
  0.00000000E+00  0.00000000E+00  0.00000000E+00
  0.00000000E+00  0.00000000E+00  0.00000000E+00
  0.00000000E+00  0.00000000E+00  0.00000000E+00
  0.00000000E+00  0.00000000E+00  0.00000000E+00
  0.00000000E+00  0.00000000E+00  0.00000000E+00
  0.00000000E+00  0.00000000E+00  0.00000000E+00
  0.00000000E+00  0.00000000E+00  0.00000000E+00
  0.00000000E+00  0.00000000E+00  0.00000000E+00
  0.00000000E+00  0.00000000E+00  0.00000000E+00
  0.00000000E+00  0.00000000E+00  0.00000000E+00
  0.00000000E+00  0.00000000E+00  0.00000000E+00
  0.00000000E+00  0.00000000E+00  0.00000000E+00
  0.00000000E+00  0.00000000E+00  0.00000000E+00
  0.00000000E+00  0.00000000E+00  0.00000000E+00
  0.00000000E+00  0.00000000E+00  0.00000000E+00
  0.00000000E+00  0.00000000E+00  0.00000000E+00
  0.00000000E+00  0.00000000E+00  0.00000000E+00
  0.00000000E+00  0.00000000E+00  0.00000000E+00
  0.00000000E+00  0.00000000E+00  0.00000000E+00
  0.00000000E+00  0.00000000E+00  0.00000000E+00
