Na3 Mn4 F12                             
   1.00000000000000     
     5.6682274987736943   -0.0000273324163175   -0.0550733893234535
    -0.0000376331877929    7.8498406952755637   -0.0000672819321628
    -0.0536378157895724   -0.0000458319603936    5.4460804070775515
   Na   Mn   F 
     3     4    12
Direct
  0.0589711997996229  0.2499984520326191  0.9806824673085429
  0.4312671781551556  0.7500121698431811  0.4782240418961584
  0.9452668267166471  0.7499851196299154  0.0098721891353088
  0.9927508169150713  0.4957425410246082  0.5000792149085536
  0.5023538626639203  0.0033556610657204  0.9995135701798945
  0.9927472584421837  0.0042706745018065  0.5000793972578806
  0.5023543165098551  0.4966527209455097  0.9995049889634678
  0.9691219063394423  0.2500211552628859  0.3812473869523249
  0.4505133155565771  0.2500354885151113  0.0915697706254218
  0.0341580798300852  0.7499785445689142  0.6051772214087378
  0.5386489294004555  0.7499663119978370  0.8857476076319537
  0.7011964112686822  0.5671148584598685  0.2999640622739193
  0.2032498799316073  0.9353188776357511  0.2013488196181267
  0.2884675411167042  0.0446074497812762  0.7070643002544039
  0.8214037325968563  0.4569877494257233  0.8294662940797399
  0.2884446589800269  0.4554134805721377  0.7071054124624885
  0.8213916557976692  0.0430000181648940  0.8294500599914800
  0.7012431968347203  0.9328085169832990  0.2999480518318252
  0.2032492331447207  0.5647302095889417  0.2013551432197764
 
  0.00000000E+00  0.00000000E+00  0.00000000E+00
  0.00000000E+00  0.00000000E+00  0.00000000E+00
  0.00000000E+00  0.00000000E+00  0.00000000E+00
  0.00000000E+00  0.00000000E+00  0.00000000E+00
  0.00000000E+00  0.00000000E+00  0.00000000E+00
  0.00000000E+00  0.00000000E+00  0.00000000E+00
  0.00000000E+00  0.00000000E+00  0.00000000E+00
  0.00000000E+00  0.00000000E+00  0.00000000E+00
  0.00000000E+00  0.00000000E+00  0.00000000E+00
  0.00000000E+00  0.00000000E+00  0.00000000E+00
  0.00000000E+00  0.00000000E+00  0.00000000E+00
  0.00000000E+00  0.00000000E+00  0.00000000E+00
  0.00000000E+00  0.00000000E+00  0.00000000E+00
  0.00000000E+00  0.00000000E+00  0.00000000E+00
  0.00000000E+00  0.00000000E+00  0.00000000E+00
  0.00000000E+00  0.00000000E+00  0.00000000E+00
  0.00000000E+00  0.00000000E+00  0.00000000E+00
  0.00000000E+00  0.00000000E+00  0.00000000E+00
  0.00000000E+00  0.00000000E+00  0.00000000E+00
