Co2 F6                                  
   1.00000000000000     
     4.3537136000303063   -0.0096556432853024    2.8542340812878919
     1.5307917797668111    4.0961143505376523    2.8495906622679330
     0.0068346176684113   -0.0068772030825137    5.2220247635494115
   Co   F 
     2     6
Direct
  0.4999869831924665  0.4999749813512944  0.4999885408000780
  0.0000423928027230 -0.0000001263153722  0.0000092410801718
  0.6345842056916170  0.2533739958483781  0.8671145214594018
  0.2528003146647315  0.8694676094640748  0.6314361100533636
  0.8634900501555797  0.6319543868917040  0.2575231100835854
  0.3653894254084095  0.7465776274438987  0.1329163076417423
  0.7472594379538297  0.1305635031102879  0.3685924127307318
  0.1364471901306431  0.3680880222057271  0.7424197561509184
 
  0.00000000E+00  0.00000000E+00  0.00000000E+00
  0.00000000E+00  0.00000000E+00  0.00000000E+00
  0.00000000E+00  0.00000000E+00  0.00000000E+00
  0.00000000E+00  0.00000000E+00  0.00000000E+00
  0.00000000E+00  0.00000000E+00  0.00000000E+00
  0.00000000E+00  0.00000000E+00  0.00000000E+00
  0.00000000E+00  0.00000000E+00  0.00000000E+00
  0.00000000E+00  0.00000000E+00  0.00000000E+00
