Sodium tetrafluoromanganate(III)        
   1.00000000000000     
     5.7237451903367527    0.0000003715172437   -0.0552097630817490
     0.0000003304501240    4.8833845487083787    0.0000002976926985
    -1.8218571398031485    0.0000002143684724    5.4298390370620870
   Na   Mn   F 
     2     2     8
Direct
  0.5000336981702614  0.4999319247979715 -0.0000071660735656
  0.5000339901715821  0.0000683176562911  0.4999928386507833
 -0.0000303007070001  0.4999907826227996  0.5000563725173330
 -0.0000303632442705  0.0000091211529832  0.0000562886606847
  0.8737492979333695  0.7702553986784613  0.6686321615366544
  0.1262749065084135  0.2296621912604328  0.3313393288789992
  0.1262749647017415  0.2703375056573956  0.8313394299815684
  0.8737492596308158  0.7297447844610149  0.1686323158482911
  0.3070223713202608  0.6589261739867783  0.6132302663885097
  0.6929498679531070  0.3410866702012968  0.3867488297375978
  0.6929499298825895  0.1589132804310862  0.8867489520572658
  0.3070223776791294  0.8410738490934886  0.1132303818158710
 
  0.00000000E+00  0.00000000E+00  0.00000000E+00
  0.00000000E+00  0.00000000E+00  0.00000000E+00
  0.00000000E+00  0.00000000E+00  0.00000000E+00
  0.00000000E+00  0.00000000E+00  0.00000000E+00
  0.00000000E+00  0.00000000E+00  0.00000000E+00
  0.00000000E+00  0.00000000E+00  0.00000000E+00
  0.00000000E+00  0.00000000E+00  0.00000000E+00
  0.00000000E+00  0.00000000E+00  0.00000000E+00
  0.00000000E+00  0.00000000E+00  0.00000000E+00
  0.00000000E+00  0.00000000E+00  0.00000000E+00
  0.00000000E+00  0.00000000E+00  0.00000000E+00
  0.00000000E+00  0.00000000E+00  0.00000000E+00
