Na3 Co4 F12                             
   1.00000000000000     
     5.5310200048773455   -0.0113085492443560    0.0012055545204709
    -0.0119925339532038    7.6781423718764605   -0.0242141325700838
     0.0020726527011689   -0.0161747837692985    5.3603078370671504
   Na   Co   F 
     3     4    12
Direct
  0.0594197453178396  0.2616500119489586  0.9775034355335919
  0.4322504172397998  0.7377951392475310  0.4838959823668887
  0.9489907337383485  0.7380477561250842  0.0118768895117753
  0.9896578552546984  0.4953072670199674  0.4983893034765146
  0.5017840050209870  0.0025779847325325  0.0004802389582608
  0.9919737710638117  0.0053687157473661  0.4999939061527670
  0.5020777518396287  0.4935867976672910  0.9985153417551942
  0.9755735534157850  0.2466682805389269  0.3854319161615436
  0.4665907308768098  0.2313446579011682  0.0961355840375546
  0.0281386952315259  0.7555358087705955  0.5988279594369530
  0.5308836591430222  0.7680705692031964  0.8939193250974427
  0.7034127225134910  0.5673338005305624  0.2917759039309686
  0.2130706380123755  0.9392365223551238  0.1912524363034862
  0.2987138374098208  0.0481891159161876  0.7177077256173092
  0.8134929249219880  0.4647054836803193  0.8230307746617953
  0.2928526667541149  0.4594347204306573  0.7046631497038121
  0.8022979108534614  0.0487307413265512  0.8269821113317164
  0.6957137244686749  0.9351903613689743  0.2849926214702663
  0.2050046569238191  0.5512262654889994  0.1977253944921458
 
  0.00000000E+00  0.00000000E+00  0.00000000E+00
  0.00000000E+00  0.00000000E+00  0.00000000E+00
  0.00000000E+00  0.00000000E+00  0.00000000E+00
  0.00000000E+00  0.00000000E+00  0.00000000E+00
  0.00000000E+00  0.00000000E+00  0.00000000E+00
  0.00000000E+00  0.00000000E+00  0.00000000E+00
  0.00000000E+00  0.00000000E+00  0.00000000E+00
  0.00000000E+00  0.00000000E+00  0.00000000E+00
  0.00000000E+00  0.00000000E+00  0.00000000E+00
  0.00000000E+00  0.00000000E+00  0.00000000E+00
  0.00000000E+00  0.00000000E+00  0.00000000E+00
  0.00000000E+00  0.00000000E+00  0.00000000E+00
  0.00000000E+00  0.00000000E+00  0.00000000E+00
  0.00000000E+00  0.00000000E+00  0.00000000E+00
  0.00000000E+00  0.00000000E+00  0.00000000E+00
  0.00000000E+00  0.00000000E+00  0.00000000E+00
  0.00000000E+00  0.00000000E+00  0.00000000E+00
  0.00000000E+00  0.00000000E+00  0.00000000E+00
  0.00000000E+00  0.00000000E+00  0.00000000E+00
