Sodium iron trifluoride                 
   1.00000000000000     
     5.6069130002725007    0.0001408255297750   -0.0014616650294219
     0.0001678919576458    7.8885827585610127   -0.0002027445475132
    -0.0003495623119513   -0.0001711587560139    5.4017958543840310
   Na   Fe   F 
     4     4    12
Direct
  0.0595376586220556  0.2500033906040384  0.9838525072001807
  0.9404286949973617  0.7499943767181330  0.0161737245403752
  0.4402958694149071  0.7500078347644823  0.4836272572210261
  0.5596932446774630  0.2499905196581238  0.5163629739132397
  0.5000146981402975  0.0000054966492859  0.0000164286753944
  0.0000136334062626  0.0000004692759195  0.4999822298035470
  0.5000125424610584  0.5000001254074178  0.0000073122133781
  0.0000169585140371  0.4999958844158109  0.4999848666509803
  0.4469586676584023  0.2500089157605641  0.1188091612612507
  0.5530658828752453  0.7499966076932288  0.8811510002859281
  0.0526998347444591  0.7500044009119138  0.6184034946842614
  0.9472944734534571  0.2499928801906986  0.3816163912158099
  0.2964919562022891  0.0642153893764865  0.6871700760682364
  0.7034953638841674  0.9357866328302232  0.3128298551632981
  0.2034374296403191  0.9359851640206333  0.1870313197532664
  0.7965474372150591  0.0640329798603183  0.8129673811020982
  0.7035017739683695  0.5642286053514474  0.3128223757707275
  0.2964935636498287  0.4357653674132598  0.6871792367996330
  0.7965689483099055  0.4359960847183765  0.8129708082191280
  0.2034313721650480  0.5639888743796311  0.1870415924582364
 
  0.00000000E+00  0.00000000E+00  0.00000000E+00
  0.00000000E+00  0.00000000E+00  0.00000000E+00
  0.00000000E+00  0.00000000E+00  0.00000000E+00
  0.00000000E+00  0.00000000E+00  0.00000000E+00
  0.00000000E+00  0.00000000E+00  0.00000000E+00
  0.00000000E+00  0.00000000E+00  0.00000000E+00
  0.00000000E+00  0.00000000E+00  0.00000000E+00
  0.00000000E+00  0.00000000E+00  0.00000000E+00
  0.00000000E+00  0.00000000E+00  0.00000000E+00
  0.00000000E+00  0.00000000E+00  0.00000000E+00
  0.00000000E+00  0.00000000E+00  0.00000000E+00
  0.00000000E+00  0.00000000E+00  0.00000000E+00
  0.00000000E+00  0.00000000E+00  0.00000000E+00
  0.00000000E+00  0.00000000E+00  0.00000000E+00
  0.00000000E+00  0.00000000E+00  0.00000000E+00
  0.00000000E+00  0.00000000E+00  0.00000000E+00
  0.00000000E+00  0.00000000E+00  0.00000000E+00
  0.00000000E+00  0.00000000E+00  0.00000000E+00
  0.00000000E+00  0.00000000E+00  0.00000000E+00
  0.00000000E+00  0.00000000E+00  0.00000000E+00
