Na3 Co4 F12                             
   1.00000000000000     
     5.5113367808615967    0.0218760557852448    0.0306542626980988
     0.0202008155428386    7.6707752115953642    0.0251371681721799
    -0.0312535485618200    0.0123763957465358    5.3427517656890933
   Na   Co   F 
     3     4    12
Direct
  0.0599265789640274  0.2375062073138864  0.9796490604094091
  0.4312901489412348  0.7639624422136659  0.4837625657552995
  0.9499917873984293  0.7624375666868730  0.0103977416568297
  0.9904425079977363  0.4953088895459756  0.4996461740569074
  0.5020447943869704  0.0059603110131273  0.9971812817955669
  0.9881516436804868  0.0048854189836396  0.4981776668151108
  0.5019975349569695  0.4974455931191478  0.9993243501991576
  0.9746839660410090  0.2545748447728295  0.3868596444841221
  0.4648024526774162  0.2663023776692063  0.0957124222436734
  0.0282654711428493  0.7432853324881057  0.5988178650011508
  0.5332817206524985  0.7341031560822737  0.8917379447047121
  0.6933039645513223  0.5654621646162271  0.2816797450844236
  0.2048027713783938  0.9480010591819589  0.1982008409432892
  0.2918821984933942  0.0408613853797353  0.7034372790354059
  0.8043984010735710  0.4507995782737579  0.8278313864628185
  0.3002944464368437  0.4509657818965636  0.7212564226338597
  0.8154915088207249  0.0355433135670443  0.8243045172486528
  0.7039244479713940  0.9312857388604384  0.2922549368685609
  0.2129236544347309  0.5613088383355364  0.1928681546010503
 
  0.00000000E+00  0.00000000E+00  0.00000000E+00
  0.00000000E+00  0.00000000E+00  0.00000000E+00
  0.00000000E+00  0.00000000E+00  0.00000000E+00
  0.00000000E+00  0.00000000E+00  0.00000000E+00
  0.00000000E+00  0.00000000E+00  0.00000000E+00
  0.00000000E+00  0.00000000E+00  0.00000000E+00
  0.00000000E+00  0.00000000E+00  0.00000000E+00
  0.00000000E+00  0.00000000E+00  0.00000000E+00
  0.00000000E+00  0.00000000E+00  0.00000000E+00
  0.00000000E+00  0.00000000E+00  0.00000000E+00
  0.00000000E+00  0.00000000E+00  0.00000000E+00
  0.00000000E+00  0.00000000E+00  0.00000000E+00
  0.00000000E+00  0.00000000E+00  0.00000000E+00
  0.00000000E+00  0.00000000E+00  0.00000000E+00
  0.00000000E+00  0.00000000E+00  0.00000000E+00
  0.00000000E+00  0.00000000E+00  0.00000000E+00
  0.00000000E+00  0.00000000E+00  0.00000000E+00
  0.00000000E+00  0.00000000E+00  0.00000000E+00
  0.00000000E+00  0.00000000E+00  0.00000000E+00
