Fe2 F4                                  
   1.00000000000000     
     4.6526335436525299   -0.0000001226927154   -0.0000000779787337
    -0.0000001228232526    4.6541005393667936    0.0000001251614085
    -0.0000000356948304    0.0000001013401280    3.3031860540962295
   Fe   F 
     2     4
Direct
  0.5000121116173308  0.5000424743161742  0.4999999981327754
  0.0000121461137789 -0.0000424231905615  0.0000000016186145
  0.1998499937813465  0.8001764218380542  0.4999999955249671
  0.8001378757470977  0.1998592694561362  0.5000000058508791
  0.3001378824358511  0.3001407213258019 -0.0000000158373160
  0.6998499903045947  0.6998235362543953  0.0000000147100798
 
  0.00000000E+00  0.00000000E+00  0.00000000E+00
  0.00000000E+00  0.00000000E+00  0.00000000E+00
  0.00000000E+00  0.00000000E+00  0.00000000E+00
  0.00000000E+00  0.00000000E+00  0.00000000E+00
  0.00000000E+00  0.00000000E+00  0.00000000E+00
  0.00000000E+00  0.00000000E+00  0.00000000E+00
