Vanadium(II) fluoride                   
   1.00000000000000     
     4.8534039295620577    0.0000000104836007    0.0000012016861583
    -0.0000000059346351    4.8532451757988033   -0.0000006521483137
     0.0000002765633102   -0.0000002847267502    3.2914428204788795
   V    F 
     2     4
Direct
  0.9999928409562457  0.9999973881087527  0.0000000087986152
  0.4999928664816196  0.5000025791887381  0.4999999873276124
  0.3055091270064310  0.3056170080072036  0.0000000792379353
  0.6944980019635878  0.6944077917150011  0.9999998846234135
  0.1944980574502537  0.8055922670437354  0.4999996202135151
  0.8055091061418693  0.1943829659365761  0.5000004197989014
 
  0.00000000E+00  0.00000000E+00  0.00000000E+00
  0.00000000E+00  0.00000000E+00  0.00000000E+00
  0.00000000E+00  0.00000000E+00  0.00000000E+00
  0.00000000E+00  0.00000000E+00  0.00000000E+00
  0.00000000E+00  0.00000000E+00  0.00000000E+00
  0.00000000E+00  0.00000000E+00  0.00000000E+00
