Co2 F6                                  
   1.00000000000000     
     4.3424295663053680    0.0541216828839635    2.9020147860821930
     1.5773741742616463    4.1553396886091658    2.9076186077488488
     0.0270549974382138    0.0290600293586141    5.2814230470641199
   Co   F 
     2     6
Direct
  0.5000051547329250  0.4999732653358535  0.5000091863470786
  0.0000078059066269  0.0000028284556990  0.9999957666446520
  0.6408130363436442  0.2449735395923938  0.8701278730509543
  0.2543193144376374  0.8640198500070113  0.6308498547439072
  0.8601498397604246  0.6334463971524613  0.2524846193360517
  0.3591744287427190  0.7550172920516687  0.1298550714859701
  0.7456974711341360  0.1359955082890565  0.3691462257237532
  0.1398329489418941  0.3665713191158559  0.7475314026676259
 
  0.00000000E+00  0.00000000E+00  0.00000000E+00
  0.00000000E+00  0.00000000E+00  0.00000000E+00
  0.00000000E+00  0.00000000E+00  0.00000000E+00
  0.00000000E+00  0.00000000E+00  0.00000000E+00
  0.00000000E+00  0.00000000E+00  0.00000000E+00
  0.00000000E+00  0.00000000E+00  0.00000000E+00
  0.00000000E+00  0.00000000E+00  0.00000000E+00
  0.00000000E+00  0.00000000E+00  0.00000000E+00
