Sodium cobalt fluoride                  
   1.00000000000000     
     5.5837586791047142    0.0000083070405873    0.0000093695514231
    -0.0000236707632995    7.7442118536342246    0.0000065747338707
     0.0000092609483986    0.0000056809982384    5.3924488253574907
   Na   Co   F 
     4     4    12
Direct
  0.0556384747193448  0.2500014307398573  0.9831357434881056
  0.9443583231484993  0.7500003563672593  0.0168677467104246
  0.4443588864609680  0.7499997721344087  0.4831322663089423
  0.5556382914140201  0.2500016196287689  0.5168617538743305
  0.4999875829288882  0.4999972512791331  0.9999984247827669
  0.9999886169248100  0.4999946126284627  0.5000066020043477
  0.4999933643459897  0.0000032963751195  0.9999996472665913
  0.9999919512402258  0.0000052811814513  0.4999999053915190
  0.4596277645024927  0.2500004451584203  0.1094279581360809
  0.5403943338413484  0.7500013004424062  0.8905523720945112
  0.0403907454279491  0.7499998819937375  0.6094473118302730
  0.9596347457967127  0.2499987978737792  0.3905716880169550
  0.1977439674169545  0.5572387160381354  0.1935788398430134
  0.8022607731477507  0.4427490453596477  0.8064004255361752
  0.3022519601488369  0.4427505935791771  0.6935935317695510
  0.6977430074862454  0.5572398100720974  0.3064255815074262
  0.8022507194525730  0.0572521426235468  0.8064058815948272
  0.1977488729101893  0.9427561554715709  0.1935844963810993
  0.6977490901166661  0.9427581574379360  0.3064168269862506
  0.3022485015695295  0.0572513336150919  0.6935929844768225
 
  0.00000000E+00  0.00000000E+00  0.00000000E+00
  0.00000000E+00  0.00000000E+00  0.00000000E+00
  0.00000000E+00  0.00000000E+00  0.00000000E+00
  0.00000000E+00  0.00000000E+00  0.00000000E+00
  0.00000000E+00  0.00000000E+00  0.00000000E+00
  0.00000000E+00  0.00000000E+00  0.00000000E+00
  0.00000000E+00  0.00000000E+00  0.00000000E+00
  0.00000000E+00  0.00000000E+00  0.00000000E+00
  0.00000000E+00  0.00000000E+00  0.00000000E+00
  0.00000000E+00  0.00000000E+00  0.00000000E+00
  0.00000000E+00  0.00000000E+00  0.00000000E+00
  0.00000000E+00  0.00000000E+00  0.00000000E+00
  0.00000000E+00  0.00000000E+00  0.00000000E+00
  0.00000000E+00  0.00000000E+00  0.00000000E+00
  0.00000000E+00  0.00000000E+00  0.00000000E+00
  0.00000000E+00  0.00000000E+00  0.00000000E+00
  0.00000000E+00  0.00000000E+00  0.00000000E+00
  0.00000000E+00  0.00000000E+00  0.00000000E+00
  0.00000000E+00  0.00000000E+00  0.00000000E+00
  0.00000000E+00  0.00000000E+00  0.00000000E+00
