Cr2 F4                                  
   1.00000000000000     
     4.6727910850855405    0.0000059728988343   -0.5910294304236792
     0.0000054801673209    4.6703943654510764   -0.0000048258218922
    -0.0326168159711427   -0.0000034673609870    3.5671588771589509
   Cr   F 
     2     4
Direct
  0.5000013529110987  0.5000002936352814  0.4999992099865054
  0.0000013023479610  0.9999996967225471  0.9999992801783364
  0.2011880148398575  0.7990518156787658  0.4516184471819784
  0.7011883658669547  0.7009486329455044  0.9516169479401739
  0.7988106474649257  0.2009504156710946  0.5483823208006910
  0.2988103165692024  0.2990491453468067  0.0483837939123219
 
  0.00000000E+00  0.00000000E+00  0.00000000E+00
  0.00000000E+00  0.00000000E+00  0.00000000E+00
  0.00000000E+00  0.00000000E+00  0.00000000E+00
  0.00000000E+00  0.00000000E+00  0.00000000E+00
  0.00000000E+00  0.00000000E+00  0.00000000E+00
  0.00000000E+00  0.00000000E+00  0.00000000E+00
