V2 F6                                   
   1.00000000000000     
     4.5325499999999996    0.0000000000000000    2.8853290000000000
     1.5836010000000000    4.2469070000000002    2.8853290000000000
     0.0000000000000000    0.0000000000000000    5.3730000000000002
   V    F 
     2     6
Direct
  0.5000000000000000  0.5000000000000000  0.5000000000000000
  0.0000000000000000  0.0000000000000000  0.0000000000000000
  0.6450000000000031  0.2500000000000000  0.8549999999999969
  0.2500000000000000  0.8549999999999969  0.6450000000000031
  0.8549999999999969  0.6450000000000031  0.2500000000000000
  0.3549999999999969  0.7500000000000000  0.1450000000000031
  0.7500000000000000  0.1450000000000031  0.3549999999999969
  0.1450000000000031  0.3549999999999969  0.7500000000000000
 
  0.00000000E+00  0.00000000E+00  0.00000000E+00
  0.00000000E+00  0.00000000E+00  0.00000000E+00
  0.00000000E+00  0.00000000E+00  0.00000000E+00
  0.00000000E+00  0.00000000E+00  0.00000000E+00
  0.00000000E+00  0.00000000E+00  0.00000000E+00
  0.00000000E+00  0.00000000E+00  0.00000000E+00
  0.00000000E+00  0.00000000E+00  0.00000000E+00
  0.00000000E+00  0.00000000E+00  0.00000000E+00
