Sodium tetrafluoroferrate(III)          
   1.00000000000000     
     7.8324435397745207    0.0000071834715045    0.0404222393538367
     0.0000048443981507    5.2803016644499206   -0.0000006849835182
    -1.5032115328974740   -0.0000023644193874    7.3167854440882074
   Na   Fe   F 
     4     4    16
Direct
  0.3718080528688006  0.7781828466412648  0.1073095100713033
  0.6281964000906726  0.2218071671072366  0.8926857892778983
  0.6281972251506645  0.2781947412463168  0.3926850061621892
  0.3718065809014419  0.7218140320234241  0.6073110147956697
  0.1739749979332643  0.2573213911699668  0.2986304969058295
  0.8260256860311728  0.7426799527713399  0.7013703912970897
  0.8260258273891168  0.7573205125436502  0.2013703830255196
  0.1739746232003654  0.2426781832199651  0.7986304186606361
  0.1702379493640080  0.1381706746920983  0.0489905914357536
  0.8297660700870040  0.8618321552258124  0.9510087260403353
  0.8297660772910262  0.6381681048565966  0.4510086515057665
  0.1702378168348702  0.3618293225369271  0.5489907443435769
  0.0348949258536777  0.5543809081255091  0.2024008465149905
  0.9650971910016963  0.4456275163922285  0.7975940082606030
  0.9650970444515607  0.0543727666927722  0.2975941250061638
  0.0348951801662452  0.9456188760047581  0.7024007858178365
  0.3715661889904354  0.4690937366139707  0.3127939135302995
  0.6284326197386179  0.5309103986769017  0.6872100157915710
  0.6284324471917060  0.9690905685147797  0.1872099098262012
  0.3715665420759322  0.0309057721159292  0.8127938616017687
  0.3211204908201424  0.9822294534146394  0.3739879389135510
  0.6788800425546171  0.0177681045103668  0.6260175463500062
  0.6788796822302530  0.4822330782100863  0.1260175913189130
  0.3211204797826994  0.5177697516934572  0.8739877255465274
 
  0.00000000E+00  0.00000000E+00  0.00000000E+00
  0.00000000E+00  0.00000000E+00  0.00000000E+00
  0.00000000E+00  0.00000000E+00  0.00000000E+00
  0.00000000E+00  0.00000000E+00  0.00000000E+00
  0.00000000E+00  0.00000000E+00  0.00000000E+00
  0.00000000E+00  0.00000000E+00  0.00000000E+00
  0.00000000E+00  0.00000000E+00  0.00000000E+00
  0.00000000E+00  0.00000000E+00  0.00000000E+00
  0.00000000E+00  0.00000000E+00  0.00000000E+00
  0.00000000E+00  0.00000000E+00  0.00000000E+00
  0.00000000E+00  0.00000000E+00  0.00000000E+00
  0.00000000E+00  0.00000000E+00  0.00000000E+00
  0.00000000E+00  0.00000000E+00  0.00000000E+00
  0.00000000E+00  0.00000000E+00  0.00000000E+00
  0.00000000E+00  0.00000000E+00  0.00000000E+00
  0.00000000E+00  0.00000000E+00  0.00000000E+00
  0.00000000E+00  0.00000000E+00  0.00000000E+00
  0.00000000E+00  0.00000000E+00  0.00000000E+00
  0.00000000E+00  0.00000000E+00  0.00000000E+00
  0.00000000E+00  0.00000000E+00  0.00000000E+00
  0.00000000E+00  0.00000000E+00  0.00000000E+00
  0.00000000E+00  0.00000000E+00  0.00000000E+00
  0.00000000E+00  0.00000000E+00  0.00000000E+00
  0.00000000E+00  0.00000000E+00  0.00000000E+00
