Cr2 F6                                  
   1.00000000000000     
     4.4040522500162567   -0.0098810521456954    2.8853749727290046
     1.5541396374457848    4.1207259885438035    2.8853723972941916
    -0.0143222583775766   -0.0098863541809466    5.2650738466079963
   Cr   F 
     2     6
Direct
  0.4999992338322059  0.4999985524103039  0.5000023036578796
  0.9999986695805205  0.9999988011747760  0.0000024321457275
  0.6304118193582227  0.2500110615065836  0.8696001579978869
  0.2499881968644928  0.8695897912637349  0.6303980891754932
  0.8695832843671525  0.6304171217317673  0.2499995851921142
  0.3695899194663781  0.7499881967906390  0.1303976877017163
  0.7500099376717770  0.1304130980774687  0.3696010823069145
  0.1304189388592505  0.3695833770447337  0.7499986618222678
 
  0.00000000E+00  0.00000000E+00  0.00000000E+00
  0.00000000E+00  0.00000000E+00  0.00000000E+00
  0.00000000E+00  0.00000000E+00  0.00000000E+00
  0.00000000E+00  0.00000000E+00  0.00000000E+00
  0.00000000E+00  0.00000000E+00  0.00000000E+00
  0.00000000E+00  0.00000000E+00  0.00000000E+00
  0.00000000E+00  0.00000000E+00  0.00000000E+00
  0.00000000E+00  0.00000000E+00  0.00000000E+00
