Cr2 F6
1.0
4.395094 0.000000 2.897040
1.560189 4.108852 2.897040
0.000000 0.000000 5.264000
Cr F
2 6
direct
0.500000 0.500000 0.500000 Cr3+
0.000000 0.000000 0.000000 Cr3+
0.637000 0.250000 0.863000 F-
0.250000 0.863000 0.637000 F-
0.863000 0.637000 0.250000 F-
0.363000 0.750000 0.137000 F-
0.750000 0.137000 0.363000 F-
0.137000 0.363000 0.750000 F-
