Na3 Ni4 F12                             
   1.00000000000000     
     5.4231786240059163   -0.0000042265013555    0.0154365500653034
    -0.0000058538853967    7.5123169403507113    0.0000283207655405
     0.0150072717895155    0.0000190965438672    5.2451505031659966
   Na   Ni   F 
     3     4    12
Direct
  0.5606075138335461  0.2499939338019111  0.5198198989698481
  0.4416075905848088  0.7500092359524189  0.4883174136399124
  0.9399422345188734  0.7500100366651700  0.0142099594110506
  0.0011529851693964  0.4954878030455859  0.5008333144304036
  0.4952892366350545  0.0043369651152662  0.0004817686478209
  0.0011461997348282  0.0045131950668844  0.5008319392859920
  0.4952949936200884  0.4956613254312749  0.0004775817448221
  0.9700667587903921  0.2499803728959150  0.4042877537350718
  0.4715990000630555  0.2499963529651535  0.1025870654595905
  0.0240147062497685  0.7500144404397753  0.5967242305545374
  0.5257325183572670  0.7499984376942262  0.9073777827750433
  0.7021465716175566  0.5513174087046211  0.3012150589578683
  0.2061171636050430  0.9413462277070316  0.2048762169266448
  0.3091462906620028  0.0400931208562374  0.6857206446041149
  0.7930793400129855  0.4549503800667716  0.7983706621265571
  0.3091785463255469  0.4599038926216497  0.6857256600064945
  0.7930890447942308  0.0450470053942583  0.7983510531588112
  0.7021554435656984  0.9486888059136427  0.3012372147784231
  0.2061338618598411  0.5586510596622065  0.2048547807870158
 
  0.00000000E+00  0.00000000E+00  0.00000000E+00
  0.00000000E+00  0.00000000E+00  0.00000000E+00
  0.00000000E+00  0.00000000E+00  0.00000000E+00
  0.00000000E+00  0.00000000E+00  0.00000000E+00
  0.00000000E+00  0.00000000E+00  0.00000000E+00
  0.00000000E+00  0.00000000E+00  0.00000000E+00
  0.00000000E+00  0.00000000E+00  0.00000000E+00
  0.00000000E+00  0.00000000E+00  0.00000000E+00
  0.00000000E+00  0.00000000E+00  0.00000000E+00
  0.00000000E+00  0.00000000E+00  0.00000000E+00
  0.00000000E+00  0.00000000E+00  0.00000000E+00
  0.00000000E+00  0.00000000E+00  0.00000000E+00
  0.00000000E+00  0.00000000E+00  0.00000000E+00
  0.00000000E+00  0.00000000E+00  0.00000000E+00
  0.00000000E+00  0.00000000E+00  0.00000000E+00
  0.00000000E+00  0.00000000E+00  0.00000000E+00
  0.00000000E+00  0.00000000E+00  0.00000000E+00
  0.00000000E+00  0.00000000E+00  0.00000000E+00
  0.00000000E+00  0.00000000E+00  0.00000000E+00
