V2 F8                                   
   1.00000000000000     
     4.6353172618426903   -0.0000008160204649    2.6521296738032980
    -0.0000003603586618    5.2011578347875815   -0.0000007828294317
    -0.0414190299503365   -0.0000008212782366    5.2979700927574989
   V    F 
     2     8
Direct
  0.4999221600508008  0.4999921948443244  0.5001064232559713
  0.9999220391707766  0.0000077313195277  0.0001062117622368
  0.8331809186172165  0.9095023719704116  0.7985001020893350
  0.3331807714844786  0.5904977100361464  0.2984997762742907
  0.1669426310890927  0.0904065801930258  0.2013366375271630
  0.6669426392055655  0.4095934099595837  0.7013367814752627
  0.3359101309222012  0.8004082812682540  0.7428062501173329
  0.8359102465800419  0.6995918447058571  0.2428062557142070
  0.6640443003954744  0.1994393613354788  0.2572507705730445
  0.1640441624843589  0.3005605143673904  0.7572507912111490
 
  0.00000000E+00  0.00000000E+00  0.00000000E+00
  0.00000000E+00  0.00000000E+00  0.00000000E+00
  0.00000000E+00  0.00000000E+00  0.00000000E+00
  0.00000000E+00  0.00000000E+00  0.00000000E+00
  0.00000000E+00  0.00000000E+00  0.00000000E+00
  0.00000000E+00  0.00000000E+00  0.00000000E+00
  0.00000000E+00  0.00000000E+00  0.00000000E+00
  0.00000000E+00  0.00000000E+00  0.00000000E+00
  0.00000000E+00  0.00000000E+00  0.00000000E+00
  0.00000000E+00  0.00000000E+00  0.00000000E+00
