Ti12 F48                                
   1.00000000000000     
    22.3785558035376795   -0.0000000105909545   -0.0000006666351287
     0.0000000018013571    3.9086822938565922   -0.0000000032623526
    -0.0000002735225983   -0.0000000004897840    9.5155182714533719
   Ti   F 
    12    48
Direct
  0.7361362212541707  0.2499999952735550  0.8027419352704612
  0.2361362234959969  0.2500000069688966  0.6972580642148642
  0.2638642374364792  0.7499999899290728  0.1972473053619552
  0.7638642471979367  0.7500000039476333  0.3027526961046547
  0.0980905253522266  0.2499999973596942  0.4453208252852718
  0.5980905189673820  0.2499999985262065  0.0546791523452370
  0.9019105729508894  0.7500000029795331  0.5546893153021841
  0.4019105547289072  0.7500000015743424  0.9453107142278938
  0.5737336700321904  0.2500000018322979  0.6474147351629043
  0.0737336777059596  0.2499999950933045  0.8525852189350331
  0.4262642500319558  0.7500000074884881  0.3525769972245385
  0.9262642556988041  0.7500000020503634  0.1474230336441806
  0.2719836898607113  0.2499999895838840  0.1956589173413334
  0.7719837016657465  0.2500000031912535  0.3043411058654186
  0.7280068222308742  0.7499999952492828  0.8043210300324901
  0.2280068228566989  0.7500000069773591  0.6956789448859055
  0.9208319736439137  0.2500000020149997  0.1652309822817415
  0.4208319770002618  0.2500000060785723  0.3347690342951495
  0.0791732631958197  0.7499999957003496  0.8347735534169374
  0.5791732469974491  0.7500000020383837  0.6652264319173113
  0.0226629855768081  0.2499999978617993  0.3813405679946058
  0.5226629893557515  0.2499999973093878  0.1186594231198725
  0.9773287696658102  0.7500000013861552  0.6187296015750334
  0.4773287525633947  0.7500000021794762  0.8812704094695931
  0.5908123040409308  0.2500000002491873  0.4654594063210382
  0.0908122782427441  0.2499999960277464  0.0345405715572582
  0.4091958906371076  0.7500000060895928  0.5345381266118210
  0.9091959218308716  0.7499999998970708  0.9654618919023221
  0.6612854834636650  0.2499999989575059  0.6894971530858811
  0.1612854942902331  0.2500000013846844  0.8105028607469578
  0.3387175497110420  0.7499999985180565  0.3104992416365207
  0.8387175534387410  0.7500000020460718  0.1895007410052258
  0.8998805201399733  0.2500000022534579  0.5367693084171776
  0.3998805092871933  0.2500000015702284  0.9632307455709395
  0.1001235404149270  0.7499999974480502  0.4632567039650368
  0.6001235366736353  0.7499999986369161  0.0367432486146342
  0.7775205227656627  0.2499999994624673  0.6413030828419721
  0.2775205338260349  0.2500000057394658  0.8586969169664940
  0.2224773888641636  0.7499999922485685  0.3586785804719383
  0.7224773900370565  0.7500000012348806  0.1413214264157503
  0.1376169604614788  0.2499999993279332  0.2825823798383453
  0.6376169593806438  0.2499999991918500  0.2174176040294427
  0.8623687491312424  0.7500000015613111  0.7174065507739655
  0.3623687413044934  0.7499999997970264  0.7825934644664017
  0.6764952677269847  0.2499999981981205  0.9561487140275133
  0.1764952763274081  0.2500000027418707  0.5438512782144755
  0.3235101481216063  0.7499999944637779  0.0438500233967503
  0.8235101586962799  0.7500000013207853  0.4561499896223893
  0.7954838717046613  0.2499999976555998  0.9284101585262761
  0.2954838805476072  0.2500000037340513  0.5715898643977013
  0.2045207875635597  0.7499999920866145  0.0715702713050135
  0.7045208010854651  0.7499999997790354  0.4284297228762668
  0.4939324456749361  0.2499999997760298  0.6344952937504900
  0.9939324476785600  0.2499999973702316  0.8655045493637701
  0.5060696205319530  0.7500000031905145  0.3654950815107227
  0.0060696252228780  0.7500000003075016  0.1345050579928113
  0.0694480328011764  0.2499999970609110  0.6425996569738786
  0.5694480123742025  0.2500000003812488  0.8574003085622763
  0.9305539204663305  0.7500000023217908  0.3574095582465873
  0.4305539260683986  0.7500000053755755  0.1425904707193553
 
  0.00000000E+00  0.00000000E+00  0.00000000E+00
  0.00000000E+00  0.00000000E+00  0.00000000E+00
  0.00000000E+00  0.00000000E+00  0.00000000E+00
  0.00000000E+00  0.00000000E+00  0.00000000E+00
  0.00000000E+00  0.00000000E+00  0.00000000E+00
  0.00000000E+00  0.00000000E+00  0.00000000E+00
  0.00000000E+00  0.00000000E+00  0.00000000E+00
  0.00000000E+00  0.00000000E+00  0.00000000E+00
  0.00000000E+00  0.00000000E+00  0.00000000E+00
  0.00000000E+00  0.00000000E+00  0.00000000E+00
  0.00000000E+00  0.00000000E+00  0.00000000E+00
  0.00000000E+00  0.00000000E+00  0.00000000E+00
  0.00000000E+00  0.00000000E+00  0.00000000E+00
  0.00000000E+00  0.00000000E+00  0.00000000E+00
  0.00000000E+00  0.00000000E+00  0.00000000E+00
  0.00000000E+00  0.00000000E+00  0.00000000E+00
  0.00000000E+00  0.00000000E+00  0.00000000E+00
  0.00000000E+00  0.00000000E+00  0.00000000E+00
  0.00000000E+00  0.00000000E+00  0.00000000E+00
  0.00000000E+00  0.00000000E+00  0.00000000E+00
  0.00000000E+00  0.00000000E+00  0.00000000E+00
  0.00000000E+00  0.00000000E+00  0.00000000E+00
  0.00000000E+00  0.00000000E+00  0.00000000E+00
  0.00000000E+00  0.00000000E+00  0.00000000E+00
  0.00000000E+00  0.00000000E+00  0.00000000E+00
  0.00000000E+00  0.00000000E+00  0.00000000E+00
  0.00000000E+00  0.00000000E+00  0.00000000E+00
  0.00000000E+00  0.00000000E+00  0.00000000E+00
  0.00000000E+00  0.00000000E+00  0.00000000E+00
  0.00000000E+00  0.00000000E+00  0.00000000E+00
  0.00000000E+00  0.00000000E+00  0.00000000E+00
  0.00000000E+00  0.00000000E+00  0.00000000E+00
  0.00000000E+00  0.00000000E+00  0.00000000E+00
  0.00000000E+00  0.00000000E+00  0.00000000E+00
  0.00000000E+00  0.00000000E+00  0.00000000E+00
  0.00000000E+00  0.00000000E+00  0.00000000E+00
  0.00000000E+00  0.00000000E+00  0.00000000E+00
  0.00000000E+00  0.00000000E+00  0.00000000E+00
  0.00000000E+00  0.00000000E+00  0.00000000E+00
  0.00000000E+00  0.00000000E+00  0.00000000E+00
  0.00000000E+00  0.00000000E+00  0.00000000E+00
  0.00000000E+00  0.00000000E+00  0.00000000E+00
  0.00000000E+00  0.00000000E+00  0.00000000E+00
  0.00000000E+00  0.00000000E+00  0.00000000E+00
  0.00000000E+00  0.00000000E+00  0.00000000E+00
  0.00000000E+00  0.00000000E+00  0.00000000E+00
  0.00000000E+00  0.00000000E+00  0.00000000E+00
  0.00000000E+00  0.00000000E+00  0.00000000E+00
  0.00000000E+00  0.00000000E+00  0.00000000E+00
  0.00000000E+00  0.00000000E+00  0.00000000E+00
  0.00000000E+00  0.00000000E+00  0.00000000E+00
  0.00000000E+00  0.00000000E+00  0.00000000E+00
  0.00000000E+00  0.00000000E+00  0.00000000E+00
  0.00000000E+00  0.00000000E+00  0.00000000E+00
  0.00000000E+00  0.00000000E+00  0.00000000E+00
  0.00000000E+00  0.00000000E+00  0.00000000E+00
  0.00000000E+00  0.00000000E+00  0.00000000E+00
  0.00000000E+00  0.00000000E+00  0.00000000E+00
  0.00000000E+00  0.00000000E+00  0.00000000E+00
  0.00000000E+00  0.00000000E+00  0.00000000E+00
