Mn2 F4                                  
   1.00000000000000     
     4.8861113271911183   -0.0000010998598506    0.0000000275217428
    -0.0000011001069542    4.8861112722758255    0.0000000124816022
     0.0000000181020820    0.0000000089184440    3.3202787941210312
   Mn   F 
     2     4
Direct
  0.4999999892637883  0.5000000102839192  0.4999999927769470
 -0.0000000025084050 -0.0000000126198258  0.0000000045720153
  0.1952174545888203  0.8047825403044834  0.5000000011046211
  0.8047825536586747  0.1952174447250308  0.4999999981574397
  0.3047823170576207  0.3047823170622601 -0.0000000072170604
  0.6952176879395010  0.6952177002441324  0.0000000106060373
 
  0.00000000E+00  0.00000000E+00  0.00000000E+00
  0.00000000E+00  0.00000000E+00  0.00000000E+00
  0.00000000E+00  0.00000000E+00  0.00000000E+00
  0.00000000E+00  0.00000000E+00  0.00000000E+00
  0.00000000E+00  0.00000000E+00  0.00000000E+00
  0.00000000E+00  0.00000000E+00  0.00000000E+00
