Sodium iron trifluoride                 
   1.00000000000000     
     5.3533006023644081    0.0000001097622506    0.0000017384018452
     0.0000001306323528    7.4190212221512928    0.0000000583152501
     0.0000016325282134    0.0000000454185929    5.1309314731148614
   Fe   F 
     4    12
Direct
  0.4999994051978784 -0.0000006015846684 -0.0000007905851985
 -0.0000006029516384 -0.0000005927943184  0.5000005576851884
  0.4999993850076080  0.5000005538876957 -0.0000004838035533
 -0.0000007245694392  0.5000006333611922  0.5000005984541871
  0.4786153527137542  0.2499999681721885  0.1053419314246044
  0.5213846233006993  0.7499999365279687  0.8946582792473038
  0.0213846667163747  0.7500000315173488  0.6053418397223560
  0.9786153921570929  0.2500000146142649  0.3946577582023236
  0.2977878960482631  0.0514197701632471  0.6977260576061104
  0.7022127464298947  0.9485802178256229  0.3022746827811997
  0.2022133995495450  0.9485803868833728  0.1977250339352664
  0.7977872811595924  0.0514196285838002  0.8022741086156110
  0.7022127949595057  0.5514197377290103  0.3022746600779708
  0.2977878642445018  0.4485803992991133  0.6977264189622189
  0.7977872287857355  0.4485802966386279  0.8022743657904089
  0.2022132912506316  0.5514196191755338  0.1977249748840130
 
  0.00000000E+00  0.00000000E+00  0.00000000E+00
  0.00000000E+00  0.00000000E+00  0.00000000E+00
  0.00000000E+00  0.00000000E+00  0.00000000E+00
  0.00000000E+00  0.00000000E+00  0.00000000E+00
  0.00000000E+00  0.00000000E+00  0.00000000E+00
  0.00000000E+00  0.00000000E+00  0.00000000E+00
  0.00000000E+00  0.00000000E+00  0.00000000E+00
  0.00000000E+00  0.00000000E+00  0.00000000E+00
  0.00000000E+00  0.00000000E+00  0.00000000E+00
  0.00000000E+00  0.00000000E+00  0.00000000E+00
  0.00000000E+00  0.00000000E+00  0.00000000E+00
  0.00000000E+00  0.00000000E+00  0.00000000E+00
  0.00000000E+00  0.00000000E+00  0.00000000E+00
  0.00000000E+00  0.00000000E+00  0.00000000E+00
  0.00000000E+00  0.00000000E+00  0.00000000E+00
  0.00000000E+00  0.00000000E+00  0.00000000E+00
