Mn2 F6                                  
   1.00000000000000     
     9.8047266111542282   -0.0014190079938208   -0.0006713509255392
     2.4506311904202831    4.4106501963379259    0.0035259052232581
     2.4507666113521704    1.2523219000520918    4.5202129295495723
   Mn   F 
     4    12
Direct
  0.2499870723716029  0.5001018686896757  0.5000273384124583
  0.7499840282944632  0.5001012628890180  0.5000314561558170
  0.0000525337566799  0.9999020184969751  0.9999648402103247
  0.5000529569476981  0.9999030129233475  0.9999641951207465
  0.1911433018887294  0.7499571925882975  0.7499464486043692
  0.6911432871849428  0.7499582008041870  0.7499465339625218
  0.3087962577598020  0.2500658780019265  0.2500150056474197
  0.8087963495329689  0.2500660633771332  0.2500155539230846
  0.3815661717337733  0.1102535317808773  0.7620307828706387
  0.8815660323433008  0.1102538288373296  0.7620311194673732
  0.0677557185574713  0.3895315505413421  0.7379681288305875
  0.5677539624276022  0.3895380061203113  0.7379656076727201
  0.1184035073462582  0.8897686153723754  0.2381475199563212
  0.6184036395123798  0.8897698151971909  0.2381464300209828
  0.4322973117188980  0.6104146200381351  0.2618996346241005
  0.9322978086234315  0.6104145043418825  0.2618994045205483
 
  0.00000000E+00  0.00000000E+00  0.00000000E+00
  0.00000000E+00  0.00000000E+00  0.00000000E+00
  0.00000000E+00  0.00000000E+00  0.00000000E+00
  0.00000000E+00  0.00000000E+00  0.00000000E+00
  0.00000000E+00  0.00000000E+00  0.00000000E+00
  0.00000000E+00  0.00000000E+00  0.00000000E+00
  0.00000000E+00  0.00000000E+00  0.00000000E+00
  0.00000000E+00  0.00000000E+00  0.00000000E+00
  0.00000000E+00  0.00000000E+00  0.00000000E+00
  0.00000000E+00  0.00000000E+00  0.00000000E+00
  0.00000000E+00  0.00000000E+00  0.00000000E+00
  0.00000000E+00  0.00000000E+00  0.00000000E+00
  0.00000000E+00  0.00000000E+00  0.00000000E+00
  0.00000000E+00  0.00000000E+00  0.00000000E+00
  0.00000000E+00  0.00000000E+00  0.00000000E+00
  0.00000000E+00  0.00000000E+00  0.00000000E+00
