V2 F6                                   
   1.00000000000000     
     4.5127929975407861    0.0165684173285061    2.9299249840258739
     1.5950115922418453    4.2394725048009398    2.9505160183180923
     0.0298335977673966   -0.0090479160148933    5.3825120963321833
   V    F 
     2     6
Direct
  0.5000377245170401  0.4999527329700061  0.4999401221038164
  0.0000033178652034  0.9999960808400132  0.9999907384804575
  0.6365634877895580  0.2430046137974156  0.8671540922592887
  0.2512153980600056  0.8680197097263131  0.6353493260788652
  0.8675676074068762  0.6256399283215800  0.2548317852150269
  0.3634315252053683  0.7570522248466038  0.1327839323906937
  0.7487131409224169  0.1319269320588954  0.3647540318511324
  0.1324677982335171  0.3744077774391800  0.7451959716207193
 
  0.00000000E+00  0.00000000E+00  0.00000000E+00
  0.00000000E+00  0.00000000E+00  0.00000000E+00
  0.00000000E+00  0.00000000E+00  0.00000000E+00
  0.00000000E+00  0.00000000E+00  0.00000000E+00
  0.00000000E+00  0.00000000E+00  0.00000000E+00
  0.00000000E+00  0.00000000E+00  0.00000000E+00
  0.00000000E+00  0.00000000E+00  0.00000000E+00
  0.00000000E+00  0.00000000E+00  0.00000000E+00
