V2 F6
1.0
4.532550 0.000000 2.885329
1.583601 4.246907 2.885329
0.000000 0.000000 5.373000
V F
2 6
direct
0.500000 0.500000 0.500000 V3+
0.000000 0.000000 0.000000 V3+
0.645000 0.250000 0.855000 F-
0.250000 0.855000 0.645000 F-
0.855000 0.645000 0.250000 F-
0.355000 0.750000 0.145000 F-
0.750000 0.145000 0.355000 F-
0.145000 0.355000 0.750000 F-
