V2 F6                                   
   1.00000000000000     
    10.7460002898999996    0.0000000000000000    0.0000000000000000
     5.7706582216999998    9.0651004636000003    0.0000000000000000
     5.7706583131000002    3.1672005967999999    8.4938133511000000
   V    V    F 
     1    15    48
Direct
  0.2492953709587900  0.2509673156106230  0.2495380860506735
  0.2493263337512627  0.2509933358951447  0.7494924262669184
  0.2493028450667777  0.7509518312550962  0.2495458735382063
  0.2493220773211993  0.7509608456790926  0.7495143279890603
  0.7492968266360035  0.2509726189624205  0.2495415520567863
  0.7493268900997582  0.2509763241425499  0.7494981089785570
  0.7492980350201818  0.7509571636197367  0.2495565891920925
  0.7493300390791965  0.7509691435677142  0.7495014546920687
  0.9990064955667854  0.0006785594553440  0.0005688399280382
  0.9989923556045675  0.0006510816554273  0.5006091634845445
  0.9990050341745624  0.5006804706635994  0.0005778644392697
  0.9990017318006830  0.5006427715262372  0.5005995142583969
  0.4990024103670871  0.0006700174546820  0.0005723098959963
  0.4989741670187959  0.0006633508938340  0.5006121919504183
  0.4989913491539438  0.5006685841776535  0.0005782847024510
  0.4989810486042600  0.5006612125004807  0.5006099133388315
  0.3220338456204531  0.1256833634426524  0.4264543281950402
  0.3220428105265262  0.1256791419756786  0.9265044272768296
  0.3220332208214909  0.6256918298275861  0.4264595433384553
  0.3220476402853628  0.6256807588106303  0.9265036697482193
  0.8220236716109099  0.1256920230890468  0.4264721222080795
  0.8220522036516620  0.1256736088481708  0.9265124546782963
  0.8220323660414636  0.6256889866271267  0.4264728556814940
  0.8220357736837212  0.6256899018614348  0.9264990472677120
  0.1244016086629684  0.4278295681942448  0.3234085986704919
  0.1244050652127670  0.4278319289626270  0.8234498016494827
  0.1244036469233161  0.9278404532628460  0.3233980958493570
  0.1244074930064479  0.9278386603486363  0.8234435346286449
  0.6244199675013921  0.4278246616263407  0.3233840724611677
  0.6244054616498266  0.4278396244036262  0.8234405821528904
  0.6244097067231495  0.9278325190401113  0.3233961051837202
  0.6243938848204196  0.9278422455982319  0.8234445008740336
  0.4286558026581834  0.3216118329852883  0.1248107657150057
  0.4286151300459690  0.3216454276211433  0.6248174179419288
  0.4286451767085892  0.8216017278181802  0.1248283080526040
  0.4286256435920539  0.8216552486938484  0.6248020850485621
  0.9286598844409104  0.3216146756360546  0.1248138122464917
  0.9286061521341981  0.3216308800185095  0.6248383580572900
  0.9286703908403620  0.8216229789565279  0.1248106924062172
  0.9286139541583680  0.8216341908664033  0.6248287421289543
  0.1787548879109104  0.3744707746752974  0.0718955643613449
  0.1787702705968243  0.3745110681769147  0.5718258167447329
  0.1787698336489741  0.8744718294424223  0.0718667098276854
  0.1787586926848821  0.8745179409649670  0.5718266994026985
  0.6787734095813484  0.3744659844586987  0.0718794465092955
  0.6787638429265823  0.3745183854859019  0.5718221395348113
  0.6787592860980661  0.8744794575252913  0.0718822846872265
  0.6787744629232845  0.8745106786772632  0.5718248810361635
  0.3753967108425316  0.0714400745198449  0.1781639626750042
  0.3753498287544999  0.0714521424474317  0.6782021216454103
  0.3753958829936018  0.5714397026987407  0.1781749907029097
  0.3753360160963252  0.5714530936671336  0.6782252211231427
  0.8753830612226111  0.0714523482133370  0.1781904834586037
  0.8753516519315939  0.0714328932389247  0.6782254426535550
  0.8753776329247546  0.5714729568198029  0.1781965079251311
  0.8753579654104382  0.5714439644859266  0.6782110841729749
  0.0724633511583411  0.1772908653331277  0.3751189986717688
  0.0724712469060922  0.1772614954904122  0.8751163585424683
  0.0724949785582902  0.6772904242352541  0.3750940044781171
  0.0724740618362232  0.6772519958093316  0.8751303783270351
  0.5724793469378633  0.1772815287000688  0.3751109538393493
  0.5724864333962013  0.1772738454737353  0.8750981042111364
  0.5724876620568049  0.6772925356891653  0.3751106326186507
  0.5724759430585523  0.6772831201964005  0.8750967626275044
 
  0.00000000E+00  0.00000000E+00  0.00000000E+00
  0.00000000E+00  0.00000000E+00  0.00000000E+00
  0.00000000E+00  0.00000000E+00  0.00000000E+00
  0.00000000E+00  0.00000000E+00  0.00000000E+00
  0.00000000E+00  0.00000000E+00  0.00000000E+00
  0.00000000E+00  0.00000000E+00  0.00000000E+00
  0.00000000E+00  0.00000000E+00  0.00000000E+00
  0.00000000E+00  0.00000000E+00  0.00000000E+00
  0.00000000E+00  0.00000000E+00  0.00000000E+00
  0.00000000E+00  0.00000000E+00  0.00000000E+00
  0.00000000E+00  0.00000000E+00  0.00000000E+00
  0.00000000E+00  0.00000000E+00  0.00000000E+00
  0.00000000E+00  0.00000000E+00  0.00000000E+00
  0.00000000E+00  0.00000000E+00  0.00000000E+00
  0.00000000E+00  0.00000000E+00  0.00000000E+00
  0.00000000E+00  0.00000000E+00  0.00000000E+00
  0.00000000E+00  0.00000000E+00  0.00000000E+00
  0.00000000E+00  0.00000000E+00  0.00000000E+00
  0.00000000E+00  0.00000000E+00  0.00000000E+00
  0.00000000E+00  0.00000000E+00  0.00000000E+00
  0.00000000E+00  0.00000000E+00  0.00000000E+00
  0.00000000E+00  0.00000000E+00  0.00000000E+00
  0.00000000E+00  0.00000000E+00  0.00000000E+00
  0.00000000E+00  0.00000000E+00  0.00000000E+00
  0.00000000E+00  0.00000000E+00  0.00000000E+00
  0.00000000E+00  0.00000000E+00  0.00000000E+00
  0.00000000E+00  0.00000000E+00  0.00000000E+00
  0.00000000E+00  0.00000000E+00  0.00000000E+00
  0.00000000E+00  0.00000000E+00  0.00000000E+00
  0.00000000E+00  0.00000000E+00  0.00000000E+00
  0.00000000E+00  0.00000000E+00  0.00000000E+00
  0.00000000E+00  0.00000000E+00  0.00000000E+00
  0.00000000E+00  0.00000000E+00  0.00000000E+00
  0.00000000E+00  0.00000000E+00  0.00000000E+00
  0.00000000E+00  0.00000000E+00  0.00000000E+00
  0.00000000E+00  0.00000000E+00  0.00000000E+00
  0.00000000E+00  0.00000000E+00  0.00000000E+00
  0.00000000E+00  0.00000000E+00  0.00000000E+00
  0.00000000E+00  0.00000000E+00  0.00000000E+00
  0.00000000E+00  0.00000000E+00  0.00000000E+00
  0.00000000E+00  0.00000000E+00  0.00000000E+00
  0.00000000E+00  0.00000000E+00  0.00000000E+00
  0.00000000E+00  0.00000000E+00  0.00000000E+00
  0.00000000E+00  0.00000000E+00  0.00000000E+00
  0.00000000E+00  0.00000000E+00  0.00000000E+00
  0.00000000E+00  0.00000000E+00  0.00000000E+00
  0.00000000E+00  0.00000000E+00  0.00000000E+00
  0.00000000E+00  0.00000000E+00  0.00000000E+00
  0.00000000E+00  0.00000000E+00  0.00000000E+00
  0.00000000E+00  0.00000000E+00  0.00000000E+00
  0.00000000E+00  0.00000000E+00  0.00000000E+00
  0.00000000E+00  0.00000000E+00  0.00000000E+00
  0.00000000E+00  0.00000000E+00  0.00000000E+00
  0.00000000E+00  0.00000000E+00  0.00000000E+00
  0.00000000E+00  0.00000000E+00  0.00000000E+00
  0.00000000E+00  0.00000000E+00  0.00000000E+00
  0.00000000E+00  0.00000000E+00  0.00000000E+00
  0.00000000E+00  0.00000000E+00  0.00000000E+00
  0.00000000E+00  0.00000000E+00  0.00000000E+00
  0.00000000E+00  0.00000000E+00  0.00000000E+00
  0.00000000E+00  0.00000000E+00  0.00000000E+00
  0.00000000E+00  0.00000000E+00  0.00000000E+00
  0.00000000E+00  0.00000000E+00  0.00000000E+00
  0.00000000E+00  0.00000000E+00  0.00000000E+00
