V2 F6
1.0
       10.7460002899         0.0000000000         0.0000000000
        5.7706582217         9.0651004636         0.0000000000
        5.7706583131         3.1672005968         8.4938133511
    V   V    F
    1  15   48
Direct
     0.250000000         0.250000000         0.250000000
     0.250000000         0.250000000         0.750000000
     0.250000000         0.750000000         0.250000000
     0.250000000         0.750000000         0.750000000
     0.750000000         0.250000000         0.250000000
     0.750000000         0.250000000         0.750000000
     0.750000000         0.750000000         0.250000000
     0.750000000         0.750000000         0.750000000
     0.000000000         0.000000000         0.000000000
     0.000000000         0.000000000         0.500000000
     0.000000000         0.500000000         0.000000000
     0.000000000         0.500000000         0.500000000
     0.500000000         0.000000000         0.000000000
     0.500000000         0.000000000         0.500000000
     0.500000000         0.500000000         0.000000000
     0.500000000         0.500000000         0.500000000
     0.322499990         0.125000000         0.427500010
     0.322499990         0.125000000         0.927500010
     0.322499990         0.625000000         0.427500010
     0.322499990         0.625000000         0.927500010
     0.822499990         0.125000000         0.427500010
     0.822499990         0.125000000         0.927500010
     0.822499990         0.625000000         0.427500010
     0.822499990         0.625000000         0.927500010
     0.125000000         0.427500010         0.322499990
     0.125000000         0.427500010         0.822499990
     0.125000000         0.927500010         0.322499990
     0.125000000         0.927500010         0.822499990
     0.625000000         0.427500010         0.322499990
     0.625000000         0.427500010         0.822499990
     0.625000000         0.927500010         0.322499990
     0.625000000         0.927500010         0.822499990
     0.427500010         0.322499990         0.125000000
     0.427500010         0.322499990         0.625000000
     0.427500010         0.822499990         0.125000000
     0.427500010         0.822499990         0.625000000
     0.927500010         0.322499990         0.125000000
     0.927500010         0.322499990         0.625000000
     0.927500010         0.822499990         0.125000000
     0.927500010         0.822499990         0.625000000
     0.177499995         0.375000000         0.072499998
     0.177499995         0.375000000         0.572499990
     0.177499995         0.875000000         0.072499998
     0.177499995         0.875000000         0.572499990
     0.677500010         0.375000000         0.072499998
     0.677500010         0.375000000         0.572499990
     0.677500010         0.875000000         0.072499998
     0.677500010         0.875000000         0.572499990
     0.375000000         0.072499998         0.177499995
     0.375000000         0.072499998         0.677500010
     0.375000000         0.572499990         0.177499995
     0.375000000         0.572499990         0.677500010
     0.875000000         0.072499998         0.177499995
     0.875000000         0.072499998         0.677500010
     0.875000000         0.572499990         0.177499995
     0.875000000         0.572499990         0.677500010
     0.072499998         0.177499995         0.375000000
     0.072499998         0.177499995         0.875000000
     0.072499998         0.677500010         0.375000000
     0.072499998         0.677500010         0.875000000
     0.572499990         0.177499995         0.375000000
     0.572499990         0.177499995         0.875000000
     0.572499990         0.677500010         0.375000000
     0.572499990         0.677500010         0.875000000
