Dimanganese(II/III) pentafluoride       
   1.00000000000000     
     8.7025991697422551    0.0000014814272879    0.0782559076087093
     0.0000010643140221    6.2265310206096149   -0.0000011394765160
    -3.5168465051129565   -0.0000018476557292    6.7961353071836808
   Mn   F 
     8    20
Direct
  0.0000289306816214 -0.0000159917458077  0.0000291296066878
  0.0000289695319048  0.0000160034097809  0.5000291338980013
  0.5000290109506746  0.4999839904741213  0.0000292110793404
  0.5000289523302707  0.5000160409808025  0.5000290815101532
  0.0000002099913065  0.4633623819090355  0.2500111351556065
  0.0000006701346822  0.5366376578199235  0.7500115742118846
  0.5000005242180868  0.9633627504782488  0.2500111769576426
  0.5000003688889946  0.0366374838354196  0.7500110943568491
  0.0000057173836460  0.1212639755571602  0.2500057404388095
  0.0000057499945646  0.8787360681980534  0.7500058221670742
  0.5000058513045958  0.6212639523318488  0.2500058084906748
  0.5000057654573136  0.3787360186844364  0.7500058498741711
  0.4811589761808391  0.1984571528428475  0.0432335850511507
  0.5188352687089691  0.8014827299053252  0.9567327960838538
  0.5188352789346921  0.1985171426064362  0.4567327592143729
  0.4811590717893345  0.8015428418131515  0.5432337294020556
  0.9811589528214315  0.6984571764163854  0.0432334649415601
  0.0188351918821159  0.3014827324701790  0.9567329330336621
  0.0188351528823571  0.6985172090498373  0.4567325930090641
  0.9811590282475323  0.3015427865370787  0.5432338829011287
  0.2369392001941999  0.0283455537760380  0.6292387672256430
  0.7630313668822272  0.9716351678849983  0.3707486520962476
  0.7630314271310868  0.0283648290799108  0.8707486219134920
  0.2369391844934144  0.9716544341775674  0.1292387453285918
  0.7369393017979279  0.5283455737802488  0.6292388003363654
  0.2630313489512536  0.4716351819318660  0.3707485637437253
  0.2630312738213735  0.5283647677260134  0.8707485410798445
  0.7369392544135831  0.4716543740690995  0.1292388008923617
 
  0.00000000E+00  0.00000000E+00  0.00000000E+00
  0.00000000E+00  0.00000000E+00  0.00000000E+00
  0.00000000E+00  0.00000000E+00  0.00000000E+00
  0.00000000E+00  0.00000000E+00  0.00000000E+00
  0.00000000E+00  0.00000000E+00  0.00000000E+00
  0.00000000E+00  0.00000000E+00  0.00000000E+00
  0.00000000E+00  0.00000000E+00  0.00000000E+00
  0.00000000E+00  0.00000000E+00  0.00000000E+00
  0.00000000E+00  0.00000000E+00  0.00000000E+00
  0.00000000E+00  0.00000000E+00  0.00000000E+00
  0.00000000E+00  0.00000000E+00  0.00000000E+00
  0.00000000E+00  0.00000000E+00  0.00000000E+00
  0.00000000E+00  0.00000000E+00  0.00000000E+00
  0.00000000E+00  0.00000000E+00  0.00000000E+00
  0.00000000E+00  0.00000000E+00  0.00000000E+00
  0.00000000E+00  0.00000000E+00  0.00000000E+00
  0.00000000E+00  0.00000000E+00  0.00000000E+00
  0.00000000E+00  0.00000000E+00  0.00000000E+00
  0.00000000E+00  0.00000000E+00  0.00000000E+00
  0.00000000E+00  0.00000000E+00  0.00000000E+00
  0.00000000E+00  0.00000000E+00  0.00000000E+00
  0.00000000E+00  0.00000000E+00  0.00000000E+00
  0.00000000E+00  0.00000000E+00  0.00000000E+00
  0.00000000E+00  0.00000000E+00  0.00000000E+00
  0.00000000E+00  0.00000000E+00  0.00000000E+00
  0.00000000E+00  0.00000000E+00  0.00000000E+00
  0.00000000E+00  0.00000000E+00  0.00000000E+00
  0.00000000E+00  0.00000000E+00  0.00000000E+00
