Fe2 F4                                  
   1.00000000000000     
     4.6586949626395722   -0.0000014563560253    0.0000002694969265
    -0.0000014512261975    4.6585380321435004    0.0000003991724758
     0.0000001932356961    0.0000002763969679    3.3203977949548067
   Fe   F 
     2     4
Direct
  0.4999962157796105  0.4999940520305870  0.4999999994112940
  0.9999962127847581  0.0000059455019965  0.0000000005938148
  0.1998008711397787  0.8001953036802902  0.4999999971013196
  0.8002029149439451  0.1997973637016415  0.5000000026190321
  0.3002026157302495  0.3002023767792323  0.0000000147460852
  0.6998011696216651  0.6998049583062524  0.9999999855284614
 
  0.00000000E+00  0.00000000E+00  0.00000000E+00
  0.00000000E+00  0.00000000E+00  0.00000000E+00
  0.00000000E+00  0.00000000E+00  0.00000000E+00
  0.00000000E+00  0.00000000E+00  0.00000000E+00
  0.00000000E+00  0.00000000E+00  0.00000000E+00
  0.00000000E+00  0.00000000E+00  0.00000000E+00
