Ni2 F4                                  
   1.00000000000000     
     4.6086224512133258    0.0000000759334798   -0.0000000458101994
     0.0000000785017726    4.6095042063669984   -0.0000000911433273
    -0.0000000330276497   -0.0000000571025789    3.0740687836176868
   Ni   F 
     2     4
Direct
  0.4999527319253891  0.4999412058055485  0.4999999955562744
 -0.0000472808244591  0.0000588292078731 -0.0000000379858449
  0.1960328543193683  0.8040824092884153  0.4999999984907225
  0.8040144314221850  0.1958198446335543  0.5000000117107369
  0.3040143333377449  0.3041800570701241 -0.0000000615467860
  0.6960329298197719  0.6959176539944847  0.0000000937748970
 
  0.00000000E+00  0.00000000E+00  0.00000000E+00
  0.00000000E+00  0.00000000E+00  0.00000000E+00
  0.00000000E+00  0.00000000E+00  0.00000000E+00
  0.00000000E+00  0.00000000E+00  0.00000000E+00
  0.00000000E+00  0.00000000E+00  0.00000000E+00
  0.00000000E+00  0.00000000E+00  0.00000000E+00
