Ni2 F4
1.0
4.649800 0.000000 0.000000
0.000000 4.649800 0.000000
0.000000 0.000000 3.083800
Ni F
2  4
direct
0.500000 0.500000 0.500000 Ni2+
0.000000 0.000000 0.000000 Ni2+
0.198800 0.801200 0.500000 F-
0.801200 0.198800 0.500000 F-
0.301200 0.301200 0.000000 F-
0.698800 0.698800 0.000000 F-
