Sodium cobalt fluoride                  
   1.00000000000000     
     5.5859222992000488   -0.0026424825355077    0.0020752339815993
     0.0021228303559217    7.7054348908789869    0.0078316834741074
    -0.0007440492923103   -0.0079990229982178    5.3471041791649814
   Na   Co   F 
     4     4    12
Direct
  0.0625963597400884  0.2484988302707913  0.9805987841786920
  0.9374144129511418  0.7515249071154239  0.0192419155416069
  0.4361520516965852  0.7494474094230196  0.4823720533293333
  0.5641163418495099  0.2506382944690934  0.5179564495563300
  0.4999151223010653  0.4999766200049658 -0.0000464219755133
  0.0002239440975906  0.4999498283332753  0.4996802189211934
  0.5007725178168767  0.0000879997782620  0.0004199630374472
  0.0000510393770509  0.0000447801966121  0.5000182093111645
  0.4542854342215156  0.2500708349792077  0.1147985990978832
  0.5454371454867707  0.7500711695509167  0.8853933082701313
  0.0450187224045417  0.7499957967679973  0.6134220401609761
  0.9546456161828698  0.2499461063598527  0.3862737674595404
  0.1973995148440469  0.5619256501389378  0.1918736385764331
  0.8022407522479533  0.4381348593579993  0.8077222951989325
  0.3022415423752755  0.4424269422218535  0.6922274273897466
  0.6974112562234530  0.5575589223141391  0.3077118007661314
  0.8008487864751916  0.0587053519081148  0.8063541780304074
  0.1991995112354420  0.9413030971795738  0.1935792444087428
  0.6976241149203856  0.9379115112786915  0.3077244073445543
  0.3024057865526545  0.0617810883512787  0.6926781093962655
 
  0.00000000E+00  0.00000000E+00  0.00000000E+00
  0.00000000E+00  0.00000000E+00  0.00000000E+00
  0.00000000E+00  0.00000000E+00  0.00000000E+00
  0.00000000E+00  0.00000000E+00  0.00000000E+00
  0.00000000E+00  0.00000000E+00  0.00000000E+00
  0.00000000E+00  0.00000000E+00  0.00000000E+00
  0.00000000E+00  0.00000000E+00  0.00000000E+00
  0.00000000E+00  0.00000000E+00  0.00000000E+00
  0.00000000E+00  0.00000000E+00  0.00000000E+00
  0.00000000E+00  0.00000000E+00  0.00000000E+00
  0.00000000E+00  0.00000000E+00  0.00000000E+00
  0.00000000E+00  0.00000000E+00  0.00000000E+00
  0.00000000E+00  0.00000000E+00  0.00000000E+00
  0.00000000E+00  0.00000000E+00  0.00000000E+00
  0.00000000E+00  0.00000000E+00  0.00000000E+00
  0.00000000E+00  0.00000000E+00  0.00000000E+00
  0.00000000E+00  0.00000000E+00  0.00000000E+00
  0.00000000E+00  0.00000000E+00  0.00000000E+00
  0.00000000E+00  0.00000000E+00  0.00000000E+00
  0.00000000E+00  0.00000000E+00  0.00000000E+00
