V2 F6                                   
   1.00000000000000     
     4.5878472394580534   -0.0001050809926616    2.9203518821492653
     1.6028267306414385    4.2987596959657379    2.9203462013090902
    -0.0001609449878769   -0.0001187251282766    5.4384683666496185
   V    F 
     2     6
Direct
  0.5000008310134660  0.5000006956845766  0.4999991540232358
  0.0000006544862430  0.0000003424728519  0.9999994549961428
  0.6435477717718783  0.2499972065090503  0.8564546538115323
  0.2499994221037767  0.8564520925877233  0.6435460723054192
  0.8564527417785683  0.6435456001904427  0.2499992346081186
  0.3564516807599816  0.7500028215261452  0.1435457121455244
  0.7500004775711275  0.1435475796535428  0.3564543490470058
  0.1435464205149515  0.3564536613756673  0.7500013690630212
 
  0.00000000E+00  0.00000000E+00  0.00000000E+00
  0.00000000E+00  0.00000000E+00  0.00000000E+00
  0.00000000E+00  0.00000000E+00  0.00000000E+00
  0.00000000E+00  0.00000000E+00  0.00000000E+00
  0.00000000E+00  0.00000000E+00  0.00000000E+00
  0.00000000E+00  0.00000000E+00  0.00000000E+00
  0.00000000E+00  0.00000000E+00  0.00000000E+00
  0.00000000E+00  0.00000000E+00  0.00000000E+00
