Sodium iron trifluoride                 
   1.00000000000000     
     5.6142550703168821    0.0000178922841035   -0.0000468825933515
    -0.0000043158954801    7.8739988855423482    0.0001028017463827
    -0.0000855905601587    0.0000769624421718    5.4083837225469358
   Na   Fe   F 
     4     4    12
Direct
  0.0591148390329411  0.2499984811281182  0.9838798236226932
  0.9409758659922902  0.7500005696443220  0.0161106491018396
  0.4409483379641060  0.7499983113456068  0.4838732630699232
  0.5591307615535844  0.2500011618853576  0.5161316232456106
  0.4999652036517850 -0.0000344500439211  0.9999297381291550
  0.9999590069332224 -0.0000335860715326  0.5000684211002100
  0.4999635548117162  0.5000344293492053  0.9999259013280195
  0.9999604272441450  0.5000339170660499  0.5000680284768980
  0.4449560805994215  0.2499966660115616  0.1198444785667727
  0.5550362357872581  0.7500024069452036  0.8800643235908127
  0.0550309537326345  0.7499965208964148  0.6199392390035493
  0.9449587311234194  0.2500032107497601  0.3801583076956137
  0.2968537196936925  0.0639644629853404  0.6866896894956364
  0.7031473352108661  0.9360519004943448  0.3132523662700142
  0.2031447538223609  0.9360666531747708  0.1867544201493296
  0.7968555992466002  0.0639509776067205  0.8133126153054734
  0.7031404993197785  0.5639469251670710  0.3132477285977684
  0.2968495978801738  0.4360410016598067  0.6866888386528665
  0.7968521004240007  0.4360419082687759  0.8133043845812357
  0.2031563999760107  0.5639385317370235  0.1867561530165674
 
  0.00000000E+00  0.00000000E+00  0.00000000E+00
  0.00000000E+00  0.00000000E+00  0.00000000E+00
  0.00000000E+00  0.00000000E+00  0.00000000E+00
  0.00000000E+00  0.00000000E+00  0.00000000E+00
  0.00000000E+00  0.00000000E+00  0.00000000E+00
  0.00000000E+00  0.00000000E+00  0.00000000E+00
  0.00000000E+00  0.00000000E+00  0.00000000E+00
  0.00000000E+00  0.00000000E+00  0.00000000E+00
  0.00000000E+00  0.00000000E+00  0.00000000E+00
  0.00000000E+00  0.00000000E+00  0.00000000E+00
  0.00000000E+00  0.00000000E+00  0.00000000E+00
  0.00000000E+00  0.00000000E+00  0.00000000E+00
  0.00000000E+00  0.00000000E+00  0.00000000E+00
  0.00000000E+00  0.00000000E+00  0.00000000E+00
  0.00000000E+00  0.00000000E+00  0.00000000E+00
  0.00000000E+00  0.00000000E+00  0.00000000E+00
  0.00000000E+00  0.00000000E+00  0.00000000E+00
  0.00000000E+00  0.00000000E+00  0.00000000E+00
  0.00000000E+00  0.00000000E+00  0.00000000E+00
  0.00000000E+00  0.00000000E+00  0.00000000E+00
