Sodium trifluoroniccolate               
   1.00000000000000     
     5.1063949886389484    0.0000050472397806    0.0000062626191603
     0.0000129823615896    7.0497139818694974   -0.0137785662752647
    -0.0000045657420512   -0.0097561403971631    4.8083629936921586
   Ni   F 
     4    12
Direct
  0.5000110608717505  0.5000051729796533  0.9999864975760258
 -0.0000260343178906  0.5000033785014941  0.4999352380440831
  0.4999684278183223 -0.0000037883862805  0.0000652435944974
  0.0000060600366621  0.9999956682103274  0.5000089965389334
  0.4681501594999829  0.2411690245592627  0.1265320076041392
  0.5318389509221841  0.7588302638803411  0.8734721215622472
  0.0318573269841328  0.7411933246675032  0.6265233201223495
  0.9681340840300680  0.2588098461641184  0.3734811796402715
  0.1819069621989629  0.5619602366152473  0.1913253512239199
  0.8180971084900178  0.4380322356618770  0.8086761576644117
  0.3018566262704762  0.4379789253714965  0.6723175139771413
  0.6981810804459632  0.5620185683251845  0.3276838255106955
  0.8018739249437730  0.0620095572366078  0.8276640393343555
  0.1981535778734527  0.9379870735966619  0.1723254921128241
  0.6819262418604654  0.9380480412636673  0.3086973147584030
  0.3180644420716768  0.0619624713528522  0.6913056927357013
 
  0.00000000E+00  0.00000000E+00  0.00000000E+00
  0.00000000E+00  0.00000000E+00  0.00000000E+00
  0.00000000E+00  0.00000000E+00  0.00000000E+00
  0.00000000E+00  0.00000000E+00  0.00000000E+00
  0.00000000E+00  0.00000000E+00  0.00000000E+00
  0.00000000E+00  0.00000000E+00  0.00000000E+00
  0.00000000E+00  0.00000000E+00  0.00000000E+00
  0.00000000E+00  0.00000000E+00  0.00000000E+00
  0.00000000E+00  0.00000000E+00  0.00000000E+00
  0.00000000E+00  0.00000000E+00  0.00000000E+00
  0.00000000E+00  0.00000000E+00  0.00000000E+00
  0.00000000E+00  0.00000000E+00  0.00000000E+00
  0.00000000E+00  0.00000000E+00  0.00000000E+00
  0.00000000E+00  0.00000000E+00  0.00000000E+00
  0.00000000E+00  0.00000000E+00  0.00000000E+00
  0.00000000E+00  0.00000000E+00  0.00000000E+00
