Co2 F6                                  
   1.00000000000000     
     4.4373971261907279    0.0178799466589006    2.9144100951080256
     1.5764374355106452    4.0748296827964658    2.9264375301306114
     0.0173991862032541    0.0211618188256767    5.3301855538510132
   Co   F 
     2     6
Direct
  0.4999852212109035  0.4999977769901279  0.4999807030798942
  0.0000209071132488  0.0000243188043279 -0.0000037625467432
  0.6297201348526278  0.2503365425599917  0.8661913631104708
  0.2550142233721626  0.8575524039916633  0.6347059238874977
  0.8702835034718290  0.6413398951634849  0.2464100722485729
  0.3702964231044066  0.7496890283635967  0.1337857285247434
  0.7449807332115497  0.1424272302625678  0.3653106571483228
  0.1296988536632721  0.3586328038642399  0.7536193145472412
 
  0.00000000E+00  0.00000000E+00  0.00000000E+00
  0.00000000E+00  0.00000000E+00  0.00000000E+00
  0.00000000E+00  0.00000000E+00  0.00000000E+00
  0.00000000E+00  0.00000000E+00  0.00000000E+00
  0.00000000E+00  0.00000000E+00  0.00000000E+00
  0.00000000E+00  0.00000000E+00  0.00000000E+00
  0.00000000E+00  0.00000000E+00  0.00000000E+00
  0.00000000E+00  0.00000000E+00  0.00000000E+00
