Co2 F6                                  
   1.00000000000000     
     4.3202556368827505    0.0677398370099260    2.9369325830084940
     1.5924775655299819    4.1306646147646839    2.9193739935450016
     0.0352662658036305    0.0199458295364811    5.3137595966449052
   Co   F 
     2     6
Direct
  0.4999561501312099  0.5000535826215050  0.4999751402899411
 -0.0000914292904582 -0.0000958835227716  0.0001675675164805
  0.6336890303908129  0.2469181092484268  0.8718481151690231
  0.2490101374341474  0.8728782772925405  0.6292075552152980
  0.8655471328631275  0.6268595734796035  0.2548127140692272
  0.3661018449267536  0.7531943455226358  0.1280593408906718
  0.7511029719520695  0.1271412911480546  0.3709286822985784
  0.1346841615923300  0.3730507042099985  0.7450008845507867
 
  0.00000000E+00  0.00000000E+00  0.00000000E+00
  0.00000000E+00  0.00000000E+00  0.00000000E+00
  0.00000000E+00  0.00000000E+00  0.00000000E+00
  0.00000000E+00  0.00000000E+00  0.00000000E+00
  0.00000000E+00  0.00000000E+00  0.00000000E+00
  0.00000000E+00  0.00000000E+00  0.00000000E+00
  0.00000000E+00  0.00000000E+00  0.00000000E+00
  0.00000000E+00  0.00000000E+00  0.00000000E+00
